25
Properties=species:S:1:pos:R:3 pbc="F F F"
H       -3.06544091      -2.33221725      -1.24979552
H        1.28556290      -3.23671300      -4.02298550
H        3.54708053       0.51407755       0.66513884
H        0.44577605       4.12255473       2.38336474
H       -1.64374611      -2.03517685      -4.09686139
H        0.89095328      -0.12530909      -3.74650341
H       -1.16713116       2.46696216       0.26439999
H        0.93427255       0.53962464      -0.78393049
H       -1.41062668      -0.59794578       0.60478474
H       -3.50816875      -2.16095191       2.07031444
H        0.68865812       0.95385893       2.19398866
H       -2.43859424       0.73313162       3.05347081
H        2.96434920      -1.50481043      -1.77928132
H       -0.01021664      -2.13833546      -1.55986799
H        3.11122033       2.64796532       2.91308744
H       -1.07784685      -3.66855815       0.82070257
H       -2.54447767       3.75592373       2.78849520
H       -1.31953627      -4.69452354      -2.38290617
H       -1.76898587       0.44239120      -2.21543653
H        2.03935187       3.18563821       0.00173594
H        3.23785794       1.56401805      -2.40564925
H        1.50617469      -1.83037555       1.05795197
H       -0.37824029       2.30936659       4.71397644
H       -0.59314629      -1.72532443       3.31504946
H        0.27490028       2.81472872      -2.60324367
25
Properties=species:S:1:pos:R:3:momenta:R:3 pbc="F F F"
H       -1.49756732      -2.63159360      -2.06650067       0.09340902      -0.22484490       0.20013809
H        1.09292202      -3.65898692      -3.52022515      -0.08285067      -0.05473886       0.19225996
H        3.95914540      -0.54665429       0.03201835      -0.01120797       0.02986452       0.14845006
H        0.69065046       2.34020315       3.01342323       0.11880848       0.10524903       0.05026096
H       -2.83401424       0.06473569      -3.25716458       0.33055401      -0.52907561       0.39436668
H        0.30582291      -0.64170091      -3.79631493       0.08302054      -0.18046513       0.04938660
H        0.10202626       2.82422989      -0.01712783       0.04623339       0.11824804      -0.05873574
H       -0.78139538       0.11182365      -1.11756616      -0.00606032       0.08674868       0.17906797
H       -1.63996377       0.70425392       1.66245697      -0.26737157       0.13800785      -0.14353864
H       -3.51579809      -0.81079556      -0.25359199      -0.01927504      -0.34330068       0.04541353
H        1.20639280       0.16649532       1.00865244      -0.21094943       0.01992596       0.03548456
H       -4.49326895       1.59839492       1.80397196       0.00681804       0.21165840      -0.21159149
H        3.36821839      -1.23961578      -3.30916982      -0.18265715       0.02732215       0.11458985
H        1.43754296      -1.89506913      -1.11370485      -0.15469074      -0.23051396       0.12770979
H        3.21901862       0.18670293       3.17435535      -0.02963000      -0.13906964      -0.16668459
H       -0.86822543      -2.15166792       0.97934797      -0.06998153       0.19678319       0.09755559
H       -2.07936016       3.66170448       2.01066946      -0.05963551       0.03989136       0.04972068
H        0.36286509      -4.61727979      -0.45598947       0.05751413      -0.03942560       0.18185410
H       -2.86737037       2.25264123      -0.78591856       0.30629688       0.21865965      -0.24111038
H        3.11800561       2.44937670       0.88474004       0.19807106      -0.14250875      -0.13870681
H        2.02100354       1.12454606      -1.79806420      -0.14894108       0.18436484      -0.12338464
H        2.10976613      -2.58059789       1.82471514      -0.10493920       0.01945450      -0.20624640
H       -1.98616489       1.65669048       4.47967865       0.00268482       0.09683437      -0.29306726
H        0.17694314      -0.72732213       3.69104997      -0.08173504       0.37747259      -0.12707532
H       -0.60719472       2.35948549      -3.07374130       0.18651489       0.01345800      -0.15611716
25
Properties=species:S:1:pos:R:3:momenta:R:3 pbc="F F F"
H       -2.12608960      -2.12409845      -1.19964398       0.01653871      -0.03672289      -0.21146018
H       -0.03954097      -0.90374372      -3.10720064       0.06252364       0.04604784       0.23485800
H        3.35249642      -0.42879762       0.83369677      -0.03632475       0.07468697       0.06538063
H        0.59756977       3.55880153       2.93009829       0.20187888      -0.04182850      -0.09613434
H       -3.00184994       0.30479994      -3.09029925      -0.01725374      -0.03299413       0.16360874
H        2.24871252       0.66935710      -4.36229411      -0.08703525       0.13692373      -0.08456916
H        0.07547262       3.47006482      -0.26016541      -0.11968800       0.22371874       0.32183996
H       -1.16438627       0.74130457      -0.80030379       0.21585838      -0.11120396      -0.00756940
H       -1.63589930      -0.87851909       1.77187588       0.13576324       0.34424369       0.09944631
H       -3.83947376      -2.88939382       1.20172571      -0.13306005       0.11921869      -0.14967793
H        0.71898632       1.00470886       1.42972102       0.11202308       0.02580772       0.01101692
H       -3.97988846       0.15054387       0.00342914      -0.03391071      -0.15357278      -0.07566126
H        2.89100118      -1.67257228      -2.17050859      -0.07003330       0.17725645      -0.36064252
H        0.66737853      -1.43738771      -0.19001117      -0.13385119      -0.12627337      -0.01804820
H        2.70116759       1.05374412       3.63383043      -0.09300013       0.12070102       0.13287969
H       -0.68792424      -3.76495011       1.10163028      -0.00409143      -0.14850457      -0.22692313
H       -2.07595320       2.21300744       1.70550936      -0.04664967       0.24829612       0.00511960
H        0.47777886      -3.83429938      -1.93055048       0.06654027       0.02395133      -0.00887119
H       -2.96022712       3.03063098      -1.30223825       0.04855802       0.00490283       0.16706004
H        3.03382041       2.81944820       0.96271472      -0.03323767       0.15093133       0.22090801
H        1.82761959       1.14587278      -1.39183389       0.01112735      -0.16363693       0.20974810
H        2.58127354      -3.56218577       0.54523825      -0.24865225      -0.16818052      -0.07003718
H       -0.46270965       0.77691786       4.15418253       0.01675074      -0.21200145      -0.08502599
H        1.20082169      -1.68622365       2.79821543       0.04620677      -0.20813148      -0.06490606
H       -0.40015653       2.24296951      -3.26681827       0.12301906      -0.29363590      -0.17233945
25
Properties=species:S:1:pos:R:3:momenta:R:3 pbc="F F F"
H       -1.72403779      -3.07699064      -1.69541451       0.14002189       0.07255578      -0.10382327
H        0.29943658      -2.33723594      -3.94486757      -0.23246227       0.05220643       0.18243781
H        2.61405574      -1.29844526       0.58370545       0.22226997       0.10016239      -0.02585715
H        0.09472118       3.30461492       2.76221873       0.26325096       0.22638958      -0.15958624
H       -2.01442292      -0.16016768      -3.08368053       0.01988894      -0.04191744       0.02550324
H        0.93592998       0.72169789      -3.77867928       0.12530132      -0.23628819      -0.16570489
H       -1.63089156       4.27300722       0.36460769       0.12707494      -0.31694478      -0.20551188
H       -0.57770401       1.94759369      -1.26637187      -0.23073843      -0.15756470      -0.05240735
H       -2.40674791      -0.51024496      -0.05430432      -0.04881381      -0.11713526       0.11071099
H       -3.30660627      -3.25620079       1.00496628      -0.05820093       0.19419780       0.09929401
H        0.10473892       0.51182487       1.32693054      -0.03061338       0.30438778      -0.19739589
H       -2.07306169      -1.12714585       2.95483917      -0.43322045      -0.13201067      -0.10569142
H        3.01629265      -1.37180367      -2.59696246      -0.15309201       0.01483080      -0.05293662
H        0.32293196      -0.88964602      -1.31106175       0.24884792       0.23280591       0.12879519
H        2.76041419       1.55703338       2.09420584      -0.11370829      -0.06422967       0.06002133
H       -0.29568243      -2.61496198       1.03829601      -0.12789845       0.19329833      -0.30417636
H       -2.53253701       1.80719383       1.99916076      -0.14463094       0.11556877       0.05747902
H        1.43049333      -3.70054273      -1.25120573      -0.11055069      -0.04336843       0.48968856
H       -3.58347269       2.14798921      -0.98160510       0.23592931       0.29980775       0.10642781
H        1.47160367       3.82518098       0.17259288       0.28813398      -0.00447271      -0.08001307
H        2.44091634       1.25904271      -1.05252809      -0.19724516       0.13851232       0.18063119
H        2.26388144      -4.08358404       1.80990313       0.01755558      -0.12093176      -0.10250070
H       -0.37332574       0.87881992       4.44146452       0.02964603      -0.28341516      -0.05151818
H        1.31954823      -1.42954300       3.35497684       0.20577413      -0.18886892       0.10895699
H        1.44352582       3.62251394      -2.89118660      -0.04252014      -0.23757597       0.05717689
25
Properties=species:S:1:pos:R:3:momenta:R:3 pbc="F F F"
H       -2.40173038      -3.08129094      -1.42719429      -0.00628075      -0.18221243       0.12905739
H        0.08843412      -2.03728348      -3.16213792       0.20164852       0.11785785      -0.16165053
H        4.08596159      -0.48797127       1.37597258      -0.05516659      -0.01471781      -0.01631450
H        0.19304177       2.94626379       2.35234731      -0.07660251      -0.21450723       0.04078516
H       -2.28321036      -0.06082592      -2.48920808       0.24335767      -0.19972667       0.03439790
H       -0.59416395       0.52272395      -4.96987960       0.02615607      -0.19749711       0.25116283
H       -1.23892658       1.77607630      -0.11788306      -0.01527310       0.33478803      -0.01563429
H        0.81986350       0.89508182      -2.29501056      -0.15451745      -0.17962474      -0.04201282
H       -3.30722874      -0.58471545       0.36569036       0.06992541       0.20609645      -0.32827813
H       -3.58924760      -1.00957337       3.38013836       0.14151653      -0.10708623      -0.14283766
H        1.47959796       0.78909194       0.67549397      -0.08962302      -0.41041262      -0.03044684
H       -0.87876521       0.02526238       2.44320543      -0.20969465       0.16387394      -0.18415458
H        2.47415060      -1.43823481      -1.16334526      -0.07271719       0.14137060       0.08770051
H       -0.44794759      -1.10744298      -0.36389957       0.11528761       0.22240392       0.34544986
H        3.39325025       2.79130170       1.72811174       0.04141895       0.10343519       0.01791541
H       -1.65174039      -2.92765484       1.69021126      -0.34175024       0.03472385      -0.37913708
H       -3.25371125       1.95629953       2.13921135       0.07836407       0.14814642      -0.11532385
H        0.61533060      -3.89079580      -0.49288049      -0.05842067      -0.00812408       0.15623306
H       -4.06955281       2.08075100      -1.07708170      -0.02985159       0.12858338      -0.15592714
H        1.26805538       3.49634044      -0.64681131      -0.07485091      -0.15815506       0.01528100
H        3.72246873       1.47274620      -1.17359894      -0.00778671      -0.12119282      -0.13621451
H        3.63197481      -3.60657376       0.64008520       0.47503761       0.34129184       0.33299448
H        2.00826745       0.59575182       3.60837499      -0.14687440       0.01579004       0.03107670
H        1.37177939      -2.00230820       1.91120435       0.31835742       0.15729399       0.19873223
H       -1.43595130       2.88697993      -2.93111610      -0.37166009      -0.32239871       0.06714540
25
Properties=species:S:1:pos:R:3:momenta:R:3 pbc="F F F"
H       -3.34863751      -1.40318468      -0.33943838      -0.06579463       0.21217755      -0.06356415
H        3.65510136      -0.17838926      -3.56995875      -0.04099091      -0.12294356      -0.09059105
H        3.65366965       0.99197256      -0.66664526       0.05781927       0.00466861       0.19040989
H       -0.39857266       1.90995446       2.35755505      -0.13526206      -0.13074679      -0.06343895
H       -1.84894243      -0.42565524      -3.08230161      -0.02637388       0.27115585       0.08216284
H        0.49864264       0.93125230      -5.00207621      -0.13505371       0.20566949      -0.35951651
H       -1.25204698       0.74540021      -0.36828707      -0.19723203      -0.00565694       0.04109629
H        1.03077265       0.13493507      -2.16716140      -0.07728364       0.18488046       0.05726808
H       -1.27616165      -0.99913852       2.03866738      -0.07380079       0.04275635       0.10876314
H       -4.06244922      -1.93291409       2.65184781       0.40084479       0.00416222       0.17274213
H        1.27710761      -0.14334555       0.77924826      -0.10788822      -0.03437172       0.04965740
H       -3.48714685       1.11147283       1.60100803       0.13976481      -0.09491520      -0.21994817
H        2.81128766      -2.06388478      -0.96734806      -0.00867812      -0.36033902      -0.25540997
H       -0.39377567      -2.18075664      -0.82161864      -0.06793852       0.23709751       0.22252493
H        2.79170541       1.91587364       2.30049404       0.28780254       0.11556482       0.16393486
H       -1.92722316      -3.83936561       1.27461670      -0.04373903      -0.09131482       0.16689935
H       -1.96644892       3.58758046       0.14239864      -0.00504258       0.14975439      -0.13237959
H        1.17909530      -2.99413271       1.71468386      -0.17977768      -0.07401562       0.08029933
H       -3.81730305       1.59072777      -1.58763901      -0.01961433      -0.42151545      -0.15325085
H        1.07742709       2.72237617      -0.26592190       0.25843955       0.07198998      -0.24092542
H        2.34415084       2.68119197      -3.08913270      -0.22518550      -0.06718917      -0.08690074
H        3.85102651      -1.10294064       1.89108900       0.26134127      -0.06430975      -0.03054332
H        1.25395893      -0.55338179       3.75193438       0.22114233      -0.07284375       0.13028525
H       -0.78187404      -3.08547554       4.14012767      -0.21989508      -0.12562587       0.21493235
H       -0.86336351       2.57982760      -2.71614181       0.00239614       0.16591043       0.01549287
25
Properties=species:S:1:pos:R:3:momenta:R:3 pbc="F F F"
H       -2.90984307      -3.38823776      -1.49013073      -0.01631348       0.10944049       0.24211645
H        2.48664307      -2.57240834      -1.58614773       0.04362967      -0.14364625      -0.10609096
H        3.81812430      -0.25553349       0.22711091       0.07708856       0.44284331      -0.00790579
H        1.98135151       4.79265988       0.67152560      -0.21687759      -0.07395005       0.21454925
H       -3.25030258      -0.22246043      -2.01863830       0.22217831      -0.25192806      -0.03290803
H       -0.83259514       1.17898299      -3.63712060      -0.02907534       0.08909578       0.22141257
H       -2.67305969       3.03111071      -1.79751420      -0.04671262       0.00454408      -0.00734994
H        0.92821839      -1.03867474       0.44615976      -0.00314185       0.39375961       0.00739877
H       -2.00938443      -1.43905669       0.62012119      -0.09868800       0.12992834      -0.08929272
H       -4.96654077      -1.62551872       0.18258269      -0.05763331      -0.22035440      -0.05190030
H        2.28053581      -0.26194757       3.01110410       0.18278903      -0.25218513       0.17614118
H       -3.47927967       1.27212828       0.77997534      -0.25611790      -0.08950374      -0.26679957
H        1.81876342       0.49054622      -2.04676732       0.19890525       0.23288239       0.05745545
H       -0.47131734      -1.62444117      -2.20734340      -0.08651770       0.13593994       0.09173947
H        4.25338044       2.22442490       2.07455178      -0.02680523       0.00286311       0.08409104
H       -2.69987727      -4.18982673       1.58318511       0.05698229      -0.11363591       0.13098114
H       -1.05688909       3.50936445       0.94950797      -0.17051676      -0.15924324       0.06818882
H       -0.05704029      -3.83212995      -0.04423242      -0.22775848       0.08476371      -0.10966231
H       -0.86029378       0.98240834      -0.65864481      -0.14798089      -0.16375409      -0.29548357
H        1.53833792       1.83687373       0.86995813       0.16017704      -0.12332008      -0.08700884
H        3.70532497       2.71971645      -1.02274851      -0.21927472      -0.06958496       0.19112011
H        2.74946582      -3.09716526       1.55372699      -0.08305712       0.16150739      -0.17166432
H       -0.77371027       0.65229156       2.44485552       0.12455361      -0.01251125       0.20195303
H       -0.14350693      -2.49793312       2.84132358       0.08305479      -0.10238519      -0.19809378
H        0.62349466       3.35482646      -1.74640065       0.53711244      -0.01156580      -0.26298715
25
Properties=species:S:1:pos:R:3:momenta:R:3 pbc="F F F"
H       -3.44753221      -1.92816182      -1.52621031      -0.05930812       0.14015768      -0.03195421
H        2.38198182      -3.82379413      -0.09879711       0.05972990      -0.12489126      -0.20908421
H        3.73446405      -0.63415883       0.38585822       0.20248258      -0.05395709      -0.13332610
H        0.71354907       3.42988161       1.83264518      -0.19307021       0.11102245      -0.06438256
H       -0.93662396      -1.39944452      -3.55507182       0.04900124      -0.03354505       0.05176264
H        1.91171224      -0.33366778      -4.65520889       0.08093334       0.30323076       0.16146034
H       -1.31183038       2.66579375      -0.43154108      -0.16009736       0.14483038      -0.02626249
H        1.32625074       1.13377124      -0.01762143       0.25403504      -0.11442597      -0.03998416
H       -3.58396968       0.66024999       0.45826909       0.06866458      -0.03309068       0.13298508
H       -2.25024680      -2.03455628       1.41871551       0.05771225      -0.08141965      -0.18155105
H        2.15662640       0.73175197       2.86024909       0.12007139       0.27997910       0.28742215
H       -3.34174286       0.01313208       3.51335962       0.05316434      -0.26559783       0.24852639
H        1.64012064      -1.33199579      -1.79305465      -0.30200918      -0.03642763      -0.13284881
H       -1.04233924      -0.36483073      -0.74982014      -0.08624344       0.12001654      -0.05669030
H        3.76435961       2.60447242       0.77471110      -0.02047360       0.10741934      -0.05742552
H       -0.15680411      -4.27754765       1.99511990      -0.01233523      -0.07584446       0.00163568
H       -2.73366815       3.06561901       2.30909291      -0.23155456      -0.02222900      -0.12323400
H       -0.61116751      -3.32587644      -0.95853126      -0.06831615      -0.06302971      -0.05613640
H       -2.89150684       1.01366959      -2.64763336       0.17292563      -0.08968134      -0.00829174
H        1.56268690       3.83576248      -1.24383600      -0.00641220       0.22201379       0.06192454
H        3.32532267       1.27561552      -2.22960149      -0.03211752      -0.04412331      -0.08672389
H        0.90466994      -1.57418174       1.22589282      -0.20819714      -0.20037890       0.00434267
H       -0.83229721       0.76483392       2.04161763      -0.17822374      -0.26700421      -0.02186732
H       -0.51091120      -1.61753040       3.93026561       0.14526283       0.30078447       0.08881139
H        0.22889606       1.45119253      -2.83886913       0.29437532      -0.22380843       0.19089189
25
Properties=species:S:1:pos:R:3:momenta:R:3 pbc="F F F"
H       -3.51611117       0.17046241      -0.88220329      -0.03575871       0.14113462      -0.02591242
H        0.53626679      -2.87050907      -2.15415427      -0.12243633       0.09663504      -0.36995996
H        3.78898417       0.42710979       0.31630537      -0.00668422      -0.12522297      -0.54726859
H       -0.26709631       3.47040004       1.58974369      -0.14796111       0.22730395       0.20106477
H       -2.52598871      -2.10419873      -3.01504617      -0.18492271      -0.12793655       0.17151761
H       -0.02294702      -0.93904938      -4.67594839      -0.01264129      -0.24203650       0.09143178
H       -1.70170767       2.73596293      -1.28354044      -0.10352439       0.12149755       0.28018353
H        1.17282613      -1.01350777       0.17232913      -0.07062391      -0.25242961       0.10167360
H       -1.08933949       0.68417160       0.88278750       0.02668632       0.12828702       0.17410261
H       -3.36363367      -0.68576949       2.22233152      -0.04554994      -0.05307856       0.10661011
H        1.51098443       1.01519206       2.38496138      -0.23070106       0.08149424       0.12138208
H       -1.26295173       1.22673865       3.80757777       0.03726722       0.20265020      -0.22571189
H        3.46875559      -2.66755246      -0.67119391      -0.03214311      -0.15480342       0.08106368
H       -0.65456051      -0.07265822      -1.91013477      -0.03595170       0.23400485       0.03005498
H        2.99699340       3.44420676       1.31796153      -0.05858615      -0.17306009       0.10357778
H        0.90450386      -3.88909003       0.88173433       0.28049813       0.49703143      -0.04805875
H       -3.37005128       2.46355047       1.47514215       0.22711604       0.25088575      -0.09472407
H       -1.67640589      -2.23585711       0.00622278       0.09469192      -0.02358082      -0.05991126
H       -2.61006593       1.00274839      -3.86427445       0.13016993      -0.13008408       0.03921899
H        1.25039615       1.94762372      -0.67088843      -0.10527851       0.04476878       0.06476458
H        2.33232423      -0.29116118      -2.54988978       0.27844683       0.00450354       0.00111259
H        2.80456769      -1.82642996       2.52911672       0.15235180      -0.22873711      -0.00652526
H        1.24889899      -0.44752193       5.03671594       0.17266307      -0.07357317      -0.05360783
H       -0.36279207      -1.62637890       2.73195893      -0.31809287      -0.19135606      -0.17928252
H        0.40815002       2.08151741      -3.67761484       0.11096474      -0.25429804       0.04320385
25
Properties=species:S:1:pos:R:3:momenta:R:3 pbc="F F F"
H       -3.35059237       0.01985203      -0.89364729      -0.15448500      -0.03631656       0.15913645
H        0.03073181      -3.40457447      -2.88219812       0.19038253       0.10334859      -0.20218794
H        3.83315414      -1.33608212       0.49398755      -0.15146192      -0.23150001       0.35996035
H       -1.09047244       4.45419194       1.24689897       0.04245546       0.09241450       0.04645130
H       -2.70436497      -1.81152248      -3.48588297      -0.07302709       0.01500854      -0.21282671
H        0.21488981      -0.75378312      -4.70467115      -0.09216146      -0.22380154      -0.00971140
H       -1.02542103       2.08083000      -0.65236334      -0.15915072      -0.11383922       0.32280510
H        1.49890730       0.43166851      -0.02597500       0.09421885       0.14543679       0.00528288
H       -1.05354176      -0.49239537       1.03936799       0.12761582      -0.12463074      -0.09133125
H       -3.69783950      -1.39185932       1.99730731      -0.00242121      -0.03558376       0.13514567
H        0.25387456       1.93037066       2.28241940       0.16960952       0.06562965      -0.08396504
H       -1.25443780      -0.20361263       3.99783567       0.09874291      -0.16037752       0.01845384
H        2.42555704      -1.22820221      -2.40379660      -0.25103851       0.11214249      -0.09170295
H       -0.51955035      -0.67614477      -1.83159350      -0.16610030       0.13928486      -0.02407509
H        3.33617635       1.45837656       2.08331668      -0.09200935      -0.11725001       0.00106678
H       -0.98266097      -3.07984283       2.50355264      -0.10401280       0.12234861       0.27803482
H       -2.84547198       1.75634973       1.85976402      -0.02523967       0.29995929      -0.04846266
H       -2.14666238      -2.88353036      -0.49565555       0.05132896       0.00041025      -0.28154765
H       -1.95087467       1.30907708      -3.53606649       0.11431964       0.41387777      -0.08891930
H        1.73116425       3.41212384      -0.05086904       0.07834469      -0.13702242      -0.06879846
H        4.01677772       1.40083680      -1.22569012       0.14418684      -0.03640952      -0.08617136
H        0.95778791      -2.62543175       0.01618636       0.00802690      -0.21911790      -0.00732624
H        1.63958236       1.03230777       4.83451934       0.01755370      -0.00943917       0.12575350
H        1.48268454      -1.06628681       2.62759032       0.00438850      -0.01045320       0.08648721
H        1.20060245       1.66728331      -2.79433706       0.12993372      -0.05411977      -0.24155183
25
Properties=species:S:1:pos:R:3:momenta:R:3 pbc="F F F"
H       -5.16532256      -0.55340291       0.60160718       0.19051333       0.39719641       0.00101230
H        1.89324247      -0.51560515      -1.62781181       0.06340029       0.10250474       0.06486975
H        3.71261673      -0.18960095       0.93595825      -0.27398339       0.12737998       0.19312452
H       -0.87562599       1.88997415       1.84177869       0.14119952      -0.11439849      -0.11537750
H       -0.34298146      -0.36326028      -3.75308448       0.07350542      -0.15987874      -0.05915739
H        2.85915808       0.19244875      -4.37364150       0.04310494      -0.12873426      -0.13553803
H       -0.78924575       3.76644838      -0.70860574      -0.13189418       0.01193063      -0.08501773
H       -0.69816742       0.79755863      -1.00763327      -0.04267243      -0.18364960      -0.12033091
H       -2.20535428      -0.89626235       0.91086777       0.13087374      -0.01408964       0.13057495
H       -3.33642090      -2.32609922       3.28759121       0.04091845      -0.17503591       0.14626519
H        0.74291428      -0.59714689       1.10901612      -0.18653606       0.26720818       0.08838182
H       -3.55570121       0.83448231       2.97047437       0.07321212       0.12271215       0.23823069
H        4.69308765      -1.58124634      -1.68209081      -0.06711290       0.03057797      -0.07608610
H       -0.51333648      -2.31462857      -1.17610214       0.03902975      -0.05731281      -0.18084037
H        1.88541248       1.17842844       3.21976890      -0.03410017      -0.02787320       0.25045247
H       -0.45233269      -3.22575927       1.92944501       0.03554980       0.19598833      -0.19375327
H       -3.33612655       1.88609039      -0.07438197       0.15194553      -0.12960310      -0.03991257
H       -3.14194628      -0.62274080      -2.01902320      -0.12689126       0.30727188      -0.05131420
H       -2.15923312       2.22941354      -3.15070456      -0.01543773       0.25161003      -0.25715943
H        1.76911130       2.13613667       0.20316139      -0.11704779      -0.36190351       0.01356384
H        4.08414554       1.54400373      -1.76324796      -0.12092514      -0.04870451       0.05286886
H        2.34586091      -2.96590490       0.19722552      -0.02102606      -0.11571785       0.11479030
H       -0.76226864      -0.60678320       3.70689834      -0.08200193       0.29593027       0.00293712
H        2.21052039      -1.99860138       3.26793750       0.19226170      -0.08542135      -0.03677372
H        1.13799349       2.30205722      -2.84540279       0.04411445      -0.50798758       0.05418943
25
Properties=species:S:1:pos:R:3:momenta:R:3 pbc="F F F"
H       -3.88712636      -1.06414607      -1.14246129       0.19271583      -0.03296916      -0.30479337
H        1.85528468      -1.61566592      -3.79795014      -0.11324183      -0.06981399       0.02116949
H        4.55517442      -1.91255287       1.86457659       0.15803864      -0.11448883      -0.10733129
H        1.00950217       2.75746636       2.44239728       0.08989231       0.03510246      -0.07437705
H       -1.26315936      -1.65560901      -2.87609330      -0.13520847      -0.13688348      -0.04758039
H        0.20816423       1.02025723      -3.45172657       0.12236569      -0.14980295       0.01152488
H       -1.37561161       3.70376302       0.48210214       0.22540665       0.36729044       0.04270394
H        2.95239955       0.50800283       0.82990231      -0.25813454       0.19868185       0.14899946
H       -1.57468485       0.81613605      -0.81956649      -0.00476316      -0.04957173       0.07563578
H       -3.02719886      -0.56090935       1.81703958       0.02871240      -0.13471322       0.11086264
H       -0.03433457       0.13002595       1.61019821       0.09189977       0.17721752       0.15224977
H       -2.14977454       2.12416747       2.86855221      -0.02021406       0.15531021      -0.19969929
H        3.64279001      -2.01052849      -1.12840355      -0.01068899       0.14299731       0.02025466
H        0.96139707      -0.68119719      -1.08058254      -0.44117701      -0.02052475      -0.08336462
H        2.21100002      -0.68666061       3.56231653      -0.07787726       0.16742191      -0.22084762
H       -1.28438072      -2.32670215       0.12034619       0.01060261       0.23421345       0.02554640
H       -4.06541892       1.98160461       0.31512292      -0.03263760       0.02170673       0.06048960
H        0.92773461      -3.65484284      -1.63362734       0.10702832       0.03538625       0.20585070
H       -2.98945223       0.84705263      -3.49442436      -0.05073120       0.03558546       0.04889485
H        1.04910130       2.35147983      -0.71336876       0.34243249       0.07613362       0.20527266
H        3.21773782       0.85435411      -2.35575330      -0.03568214      -0.28255008      -0.01319821
H        1.61025789      -2.52715638       1.20253669      -0.10611910      -0.24945827      -0.01950177
H       -0.35519725       0.49889966       4.65903068       0.07902839      -0.11522315      -0.16866735
H       -0.72242971      -2.28538489       3.24607374      -0.24540733      -0.06005835       0.21452918
H       -1.47177481       3.38814601      -2.52623742       0.08375961      -0.23098925      -0.10462305
25
Properties=species:S:1:pos:R:3:momenta:R:3 pbc="F F F"
H       -3.81704165       0.12556601      -1.68450054       0.00537744       0.11004138       0.25326660
H        1.52194005      -2.58211246      -3.66487427      -0.18737326      -0.35026095       0.02174359
H        3.52966568       0.92287439      -0.07044221      -0.03686201      -0.23454579       0.05683268
H       -0.65120308       3.67206080       2.31397022       0.10080147      -0.18074579      -0.06937289
H       -1.34673286      -1.39903857      -3.09916434      -0.09340156      -0.15486785      -0.04630806
H        0.59271618       0.45364129      -4.73983877      -0.10799065      -0.01340776      -0.08486991
H       -2.51939588       2.27402819       0.26951507      -0.02187490      -0.28149440       0.10838982
H        1.30530265      -0.17456251      -1.89573833       0.13703744       0.31270638      -0.12835082
H       -1.22981955      -0.36017827      -0.28706921      -0.21752726      -0.07959514      -0.05605553
H       -3.61826285      -0.44598525       1.50221728       0.02925538       0.30443264      -0.11176804
H        1.32055798      -0.83597158       1.01916288      -0.02797714      -0.03305782       0.13036804
H       -0.85774895       0.59956766       2.57642639       0.04791794      -0.06290764      -0.01924714
H        3.27483533      -2.25820171      -0.77617337       0.06137338       0.03397873      -0.14061746
H        0.21616402      -2.98233517      -0.86639381      -0.00481792      -0.02631489       0.13389877
H        3.97074295      -1.23558744       2.27404166      -0.01397208       0.23766153      -0.09774033
H       -1.11071116      -2.44938155       1.94245805       0.00263437      -0.18658063       0.04392598
H       -3.36420258       2.22732527       3.21392098       0.05684330       0.02373964       0.06423143
H       -2.94180621      -2.77204222      -0.65241623       0.06684939       0.19633402       0.11351936
H       -1.16643381       1.69612469      -2.47916074       0.14829920       0.12031444       0.01947934
H        0.62593128       1.96940117       0.17254158      -0.23384207      -0.36376741      -0.25518683
H        1.72941985       2.76312310      -2.56722630       0.15853391       0.07749587       0.01291314
H        1.86730815      -3.66640786       1.75801313      -0.16711579       0.11107195       0.20759636
H        2.14101241       1.44768978       2.80764438       0.38285290       0.44749508       0.06687363
H        1.18194815      -1.40625684       3.93956045      -0.11080816      -0.04019644       0.01196371
H       -0.65418611       4.41665911      -1.00647394       0.02578670       0.03247084      -0.23548545
25
Properties=species:S:1:pos:R:3:momenta:R:3 pbc="F F F"
H       -2.48933871      -3.03266710       0.27971077      -0.14820404      -0.14712706      -0.17983084
H        1.66129257      -1.24499088      -2.16949567       0.08110208      -0.19063039       0.03570274
H        3.74337646       0.78469719      -1.00420920       0.13032316       0.22312422       0.25913633
H       -0.66336024       4.20434963      -0.46171746      -0.05372643       0.05991792       0.00235100
H       -3.51925632      -1.05070018      -2.10827233      -0.13220497      -0.09223075       0.04039218
H       -0.83373782       0.08881879      -3.57652258       0.29580922       0.25433629      -0.10903173
H       -0.68654025       1.66972555       1.23969928       0.18477212       0.00912715       0.14755337
H        0.81554202       1.69251684      -1.38557159       0.01626450       0.36647950      -0.22582137
H       -0.94438925      -0.65610077      -0.67815653       0.09150311      -0.22977275       0.02668561
H       -3.39238052       0.02450939       0.91685382      -0.24378252      -0.03725790      -0.21871020
H        1.54675622      -0.28804270       0.75434521      -0.08627463      -0.02117211       0.01631037
H       -2.34076965       1.12221159       3.68140888      -0.03936517      -0.26713311      -0.19725596
H        3.70112193      -2.23581939       0.10264573       0.05902332       0.03104445       0.04289692
H        0.66493390      -3.12491408       0.09296318      -0.05573757      -0.17361054       0.04756173
H        4.05583442       0.14746679       2.25450438      -0.15245545       0.01284111       0.05968097
H       -0.62277206      -4.26858998       2.61246980       0.15551526      -0.16074431       0.04420411
H       -3.30387811       3.14417042       1.22554177      -0.03513995       0.14461395       0.16122037
H       -0.99359857      -2.95192757      -2.58806986      -0.01291133      -0.02871501       0.11399114
H       -2.38144724       1.84800531      -1.46127438       0.07174015      -0.10946491       0.05958192
H        2.25701766       2.61541390       1.19886618       0.28880337       0.05561129      -0.02958487
H        2.07668830       1.19508232      -4.05845313      -0.15183345      -0.04468491       0.03419421
H        1.97433080      -2.35470798       2.86533104      -0.10198930       0.07537665      -0.04541297
H        1.12463190       0.71895793       3.56470247       0.30357928       0.08922372       0.06557718
H       -0.90468997      -1.25493530       2.29809901      -0.18753208       0.08333778       0.06594590
H       -0.54536746       3.20747027      -3.59539878      -0.27727867       0.09750973      -0.21733813
25
Properties=species:S:1:pos:R:3:momenta:R:3 pbc="F F F"
H       -3.14340221      -0.68846506      -0.62116405      -0.29111437      -0.00459025       0.05138435
H        1.20145906      -1.87223216      -3.00240750       0.13039556      -0.25473365      -0.07980443
H        4.19886392       1.61235698      -0.14636597       0.09816151       0.16761414      -0.03233058
H       -0.27699789       4.59126042       0.49355500      -0.03818781      -0.12244667      -0.11593417
H       -2.00672715      -1.43164082      -3.57155205      -0.23897738      -0.03882638       0.31795331
H       -0.09777627       0.84100214      -4.43832299      -0.02106139      -0.06275775       0.09704095
H       -2.04833770       2.05196150       0.14818739       0.07533052      -0.06802209      -0.04775171
H       -0.38311622       0.13373327      -1.50844758       0.24761083       0.16343647       0.16439051
H       -0.42823719      -1.15969617       1.10289613      -0.12856482       0.05978101      -0.02619465
H       -3.03012578      -2.79486871       1.53909550       0.36162894      -0.16639583      -0.51071010
H        0.96697428       1.72624082       0.72502553      -0.07825922       0.15013989       0.12060725
H       -2.64729063       0.18401282       2.56146580      -0.30612048       0.24493570       0.06874338
H        2.29916491      -0.82270945      -0.22596714      -0.17945219       0.02878457       0.07767073
H        1.77172071      -3.75207799      -0.47045626      -0.24148795       0.05393823       0.10344464
H        3.24635850       0.40456585       2.46464197       0.27770711       0.18818882      -0.54373060
H       -0.36947187      -4.28617409       1.62399072       0.09120262      -0.23912916      -0.03615050
H       -1.05437146       2.87378204       2.91804513       0.36056786      -0.11722872       0.11566506
H       -1.13310989      -3.00924547      -1.13186059       0.25552472       0.22667078       0.13811756
H       -2.78990543       1.48276111      -2.84683218       0.00521665       0.30249753       0.09487298
H        2.40762426       3.96144578      -0.90606023      -0.18643573      -0.24232968      -0.03360443
H        2.25472981       1.24141657      -2.48104722      -0.21336345      -0.23812374       0.19556534
H        1.91229393      -2.38229429       2.50555426      -0.08107745       0.30806551      -0.15797066
H        0.43686254       0.32678270       3.56593838      -0.15321283      -0.00905263      -0.08375547
H       -1.05875485      -2.30179236       3.88340473      -0.03622527      -0.27615862      -0.14728009
H       -0.22842738       3.06987457      -2.18131678       0.29019401      -0.05425748       0.26976132
25
Properties=species:S:1:pos:R:3:momenta:R:3 pbc="F F F"
H       -4.07647347      -1.93490165      -1.11508073      -0.01937396      -0.16718620       0.11828823
H        1.95526331      -2.74869017      -2.71266776       0.18831525       0.17298605      -0.04616606
H        2.54651777       0.72851324       1.06277356       0.11278568      -0.11862924      -0.07318109
H        0.88338571       3.28428074       1.67111184      -0.17654374       0.22647870       0.11885840
H       -2.83530860      -0.88461918      -3.92077868       0.09209349       0.16654443      -0.07353280
H        0.22313535      -0.13949205      -3.44030438      -0.01696414      -0.19315873       0.20362083
H       -1.96490275       3.02405901       0.32429338      -0.10749831      -0.03368728      -0.16993933
H        0.51776509       1.86350460      -1.09612495      -0.00012854       0.02211590       0.06006001
H       -1.72074260      -2.11506619       0.85846872       0.04361330      -0.08445398       0.46236046
H       -0.73899285      -4.00352856       3.03288633      -0.21570525       0.06213240       0.01681579
H       -0.50534654       0.61679565       1.41257232       0.00381495      -0.20041898       0.04469190
H       -3.49557421       0.36306135       1.49598367      -0.20902766       0.06603042      -0.20193689
H        3.39427289      -2.16934711       0.08839394       0.22127132       0.01241777       0.25600932
H        0.70863537      -1.06826836      -0.61266734       0.19898054       0.15673874      -0.05133451
H        3.16097452       3.21904428      -0.67259747      -0.22217122      -0.07716353       0.09924907
H        0.71328414      -3.96537177       0.13880157       0.10410597       0.06148898      -0.29031471
H       -1.77488088       2.34615118       3.45036677      -0.07698953       0.04930461      -0.25993775
H       -1.19739941      -2.77350669      -2.14200904       0.12238267       0.14090664      -0.19467913
H       -1.99781165       0.24819666      -1.22029918      -0.20526174       0.09501686      -0.09065992
H        0.44735702       4.85395800      -1.00168778       0.11544830       0.13438612       0.15053604
H        3.03995301       0.25313912      -1.98727528       0.05646274      -0.21981018      -0.21163241
H        1.18889521      -1.74764288       2.32228294       0.15641303      -0.10078070      -0.09246271
H        1.10042475       0.98733694       3.89844522      -0.16832115       0.03589615       0.18113452
H       -1.51394653      -0.94027713       3.75244907       0.20354686      -0.13380463       0.06955173
H        1.94151534       2.70267098      -3.58733675      -0.20124886      -0.07335031      -0.02539897
