25
Properties=species:S:1:pos:R:3 pbc="F F F"
H        2.67607204      -1.18910747      -1.23740925
H        2.70653600       1.23948151      -3.32885314
H        2.42754302       3.97784494      -1.67693695
H        2.27189196       3.12981641       1.44712402
H       -2.86952208      -2.76381812       3.54160886
H       -4.16886263      -3.20462907       0.61879036
H       -1.17407293      -3.57202340       1.12668402
H       -2.74868109      -0.59162359       1.39025354
H        4.15557695       1.51723406      -0.51093995
H       -1.86834924       1.26276165      -0.95174520
H       -0.17318249       2.64218047      -3.16436453
H       -0.11342147       4.24903217       3.01878866
H        1.88088701      -3.02494560       1.20579005
H       -0.36741662       3.94838237      -0.15836177
H       -2.57468560       0.54504060      -3.82702308
H       -2.38882064      -4.82022721      -1.41585568
H        2.36992125       0.02157846       1.64340997
H        0.37682831      -3.38047872      -1.63427611
H       -2.43876564      -1.74382081      -1.55944890
H        1.16799477       1.44168148      -0.76795561
H       -0.07691322      -1.01143768       0.12340691
H        0.12615321      -0.49852071      -2.87442489
H       -0.49815396       1.49812497       1.76841581
H       -0.09841758      -1.27151121       3.11860284
H        1.39986067       1.59898450       4.10472001
25
Properties=species:S:1:pos:R:3:momenta:R:3 pbc="F F F"
H        2.69369344      -1.24971631      -1.32251083       0.11526644       0.17409964      -0.11175416
H        1.71881853       0.47381205      -3.75880297      -0.25952917      -0.01977193      -0.25435180
H        4.27941920       3.41607581       0.18711123       0.10516989       0.01839070      -0.21970637
H        1.71220116       2.70241951       2.04026414       0.02983029       0.02446192       0.02664709
H       -3.13899578      -1.33632281       3.40450231       0.24171856       0.22809576       0.38806503
H       -4.56967784      -1.26938080       0.47352617      -0.19046103      -0.25785869       0.07736040
H       -2.48458978      -3.60769509       1.20873354       0.34602785      -0.08799500      -0.38094194
H       -1.67569982      -0.75361945       0.88714634       0.14761604       0.06561474       0.05743818
H        4.54695522       1.09138979      -2.18965501       0.07271000       0.08188925      -0.10587407
H       -3.01564079       0.80421020      -1.38227298      -0.29069922       0.00824448       0.08882380
H       -0.62607302       2.47029462      -2.76233711      -0.03471937      -0.16840209       0.01850947
H       -1.29050375       3.74162700       2.86722946      -0.41824808      -0.00561272       0.38645820
H        2.93129146      -2.58349324       1.51524714       0.13577939      -0.16269016      -0.07457145
H       -0.81246592       2.11568339       0.35529842       0.06721709      -0.04591215       0.08868076
H       -1.58094216      -0.25020459      -4.08631833      -0.03853865       0.02927137      -0.16188403
H        0.29729037      -2.88853931      -0.12616771      -0.01179640       0.18471669       0.39304125
H        4.12177458       0.42532553       0.85323610       0.04225093      -0.23611357       0.30745236
H        0.50159687      -2.51758977      -3.26034570      -0.03333189      -0.07884530      -0.09432899
H       -2.35335362      -2.26002701      -1.69338542      -0.33394895      -0.43831392      -0.18650236
H        1.91651382       1.91795588      -0.97829757       0.16591182       0.16372604      -0.00373607
H        1.21165344      -0.14938455       1.18931931      -0.14079033       0.34118347      -0.03427195
H       -0.11906095      -0.19757210      -1.49893301      -0.19603701       0.17322299      -0.08121476
H       -3.44754658       1.47269667       1.83310884       0.37010214      -0.05203353       0.06173278
H       -0.08621880      -2.34018330       2.92136627       0.07135028       0.04759630       0.15431345
H       -0.73043929       0.77223785       3.32293740       0.03714940       0.01303571      -0.33938482
25
Properties=species:S:1:pos:R:3:momenta:R:3 pbc="F F F"
H        2.83424600      -0.95630881      -2.84885889       0.22927089      -0.09338376      -0.05088964
H        1.41888375       1.92284753      -2.53119409      -0.31301419      -0.05971107      -0.01834538
H        2.16002528       3.47492929       0.33150099      -0.12887717      -0.18004224       0.08566584
H        4.14962458       1.71829974       2.18260347       0.30061626       0.13749012       0.12736822
H       -2.43961607      -2.12486544       2.31643458       0.00060146      -0.17665713       0.25728002
H       -4.04628761      -2.90116480      -0.38286471      -0.03412857      -0.08059054      -0.00128293
H        0.50595886      -3.55318006       2.49238539      -0.18256901      -0.04770171      -0.32047263
H       -2.54126778      -0.26434443      -0.18755526      -0.06622749      -0.04903554       0.00420455
H        2.52837027       0.41078066      -0.03478986       0.10846793       0.12609971      -0.02043365
H       -2.99914664       2.84086070      -0.01675139      -0.40256785       0.02501561      -0.05502140
H       -1.71611728       1.47981104      -2.64289491       0.41329497      -0.19793516      -0.10882244
H       -0.66407318       4.04946833       1.81877993       0.02729477       0.04371999      -0.04895297
H        2.05950005      -2.64500873      -0.19249267      -0.01917689       0.01529777       0.01429045
H       -0.48045576       4.27570761      -1.45971935      -0.02532582       0.13082825      -0.29788804
H        0.13728095      -0.33708696      -4.52921404       0.04380110       0.27843997       0.04430332
H       -1.00876212      -3.19275285      -0.30696870      -0.10345349      -0.17466482       0.24359170
H        2.72587277      -1.14906150       2.66106584       0.31391197       0.19631829       0.24235532
H        0.59316240      -3.24089294      -3.04827101       0.07570005      -0.01634691      -0.02167488
H       -2.30704584      -1.79902216      -2.87982909      -0.16896906      -0.03432035       0.05021613
H       -0.23515390       1.72614735       0.02055550       0.13296903       0.15461982      -0.09571224
H        0.07568097      -0.86824008       1.32015546      -0.21510076       0.06985267      -0.07465474
H        0.14454714      -0.69254784      -1.59205691      -0.12061217      -0.01428423      -0.16962452
H       -1.92641965       1.11927879       2.51219560       0.05428847      -0.18011622      -0.07794793
H       -0.11668913      -0.89711401       4.27476448      -0.05901944      -0.05064707       0.15767840
H        1.14788194       1.60345961       2.72301963       0.13882501       0.17775456       0.13476941
25
Properties=species:S:1:pos:R:3:momenta:R:3 pbc="F F F"
H        1.88324684      -1.16204541      -1.29049362      -0.06213974       0.11643892       0.04925382
H        0.97039348       0.11450085      -4.01331184      -0.36423591      -0.25133517       0.22199150
H        2.36497308       1.89402491      -1.71412194      -0.05418006      -0.16220663      -0.22553414
H        3.05180057       3.16259875       1.15195442       0.15121732      -0.19835809      -0.11411640
H       -3.15503819      -1.27484132       2.06261337       0.17145829      -0.03883499       0.21823294
H       -2.46130883      -3.60818765      -0.13210859       0.11903520      -0.17254553       0.15608929
H       -0.73647818      -3.41456719       2.62527057       0.16423930       0.14458293      -0.04424204
H       -4.78360723       1.20762171       0.77352992      -0.02081282       0.40126786      -0.06906858
H        4.07022343       0.09735618       0.52346361       0.36158657      -0.18334738       0.27539436
H       -2.86634662       2.54845053      -1.46296267      -0.34808761      -0.07480997      -0.01105861
H       -0.22193773       3.05213004      -3.35864538       0.01681765       0.19167044       0.10436534
H        0.38292609       2.85740031       2.95832204       0.08673115      -0.13269040      -0.09822483
H        3.93474462      -3.07312498      -0.11061775      -0.12659703       0.03211004       0.29845130
H        0.07979075       3.47500399      -0.19240054      -0.11723304       0.14960404      -0.02999362
H       -2.21267184       0.48177159      -3.87569643       0.05495807       0.01464709       0.28048202
H       -0.81212714      -2.11535950      -2.47793130       0.04916964      -0.29285134       0.23411217
H        1.99651440      -1.89413570       1.93150668       0.14429843      -0.05913319      -0.11694504
H        0.80357007      -3.89059889      -0.22773038       0.19046941       0.25613350      -0.18957606
H       -3.13760038      -0.61272139      -1.04159078      -0.33319111       0.02260800      -0.04779261
H        1.21280963       0.85791522       0.90970065       0.02775033       0.16675606      -0.18482459
H       -0.62395275      -1.37007682       0.48648681      -0.12563016      -0.07158693      -0.12424898
H       -0.47066320       0.77278999      -1.48892511       0.22451708      -0.05612810      -0.31280826
H       -1.77817883       1.39266318       1.20841018      -0.12509688       0.11912766       0.07999173
H       -0.28428410      -0.29260432       3.33289937       0.01185221       0.14605495      -0.10552204
H        2.79320206       0.79403591       3.42237871      -0.09689630      -0.06717379      -0.24440866
25
Properties=species:S:1:pos:R:3:momenta:R:3 pbc="F F F"
H        3.02036317      -1.12498607      -1.31580657       0.09550581      -0.03595190      -0.00331831
H        1.15595408       0.57349938      -3.23333204       0.21470136      -0.05699124       0.06085410
H        3.70425314       1.98213490      -1.73026074       0.02795516      -0.26378256       0.23141463
H        2.46078392       3.66455439       0.81154619       0.16970477      -0.09311881      -0.05470675
H       -3.40644451      -1.05251343       2.52640202      -0.14373551      -0.24754988       0.08269174
H       -3.02281555      -1.32452974      -0.64216437      -0.04406982      -0.04370213      -0.08036375
H       -1.10744460      -2.92048613       1.23303820      -0.08211913      -0.41309302      -0.19823318
H       -3.62148434       1.55357491       0.55108102      -0.12427302       0.03684155       0.23043673
H        3.81029949       0.76061225       1.32408534      -0.32330359       0.12759965       0.06549019
H       -1.40412680       1.38013983      -1.63830157       0.04770220       0.08671831       0.04043875
H        0.86865171       3.52572979      -1.96905024       0.18572798       0.00094134      -0.24385801
H       -2.05627403       1.77483442       3.42294152       0.09714334      -0.11235058      -0.10512739
H        1.58348877      -1.40439445       1.44325549      -0.04613631      -0.06006301      -0.04596652
H       -0.76588744       3.16801614       0.80698575       0.11421316       0.21106690       0.29548123
H       -4.24544525       0.74660992      -2.52221855      -0.10236774       0.13849778       0.01953644
H       -1.46862116      -3.79584839      -1.89130095      -0.15572307       0.12051869      -0.00270384
H        2.79467192      -0.55461325       4.10157227      -0.30521297      -0.13785513       0.26161459
H        1.44311926      -3.83106331      -0.54830557      -0.03419850       0.24306810       0.18440149
H       -1.75192817      -1.03298957      -3.56567444       0.14596545       0.14389449      -0.02154206
H        1.29554564       1.14125476      -0.23228402      -0.08451226      -0.02299503      -0.07255460
H       -0.02692347      -1.30900325      -1.14895164       0.11147446       0.05986348      -0.07278708
H        1.12976790      -2.62070469      -3.53501810       0.22050336       0.12934102       0.10377925
H       -1.06570213       0.14082902       1.16096180      -0.03447200       0.17132780      -0.18556311
H       -0.39660181      -1.02313183       3.82496866      -0.07881200       0.07649590      -0.20499947
H        1.07280026       1.58247439       2.76583054       0.12833887      -0.05872168      -0.28441506
25
Properties=species:S:1:pos:R:3:momenta:R:3 pbc="F F F"
H        3.75114206      -2.15032094       0.63335227       0.09937958      -0.13303551      -0.30166032
H        3.31652912      -0.47099863      -2.14787009       0.17383905       0.15781456       0.15437876
H        3.80064856       2.70856814      -1.77727235       0.15721917      -0.07440351       0.12277644
H        1.58548288       3.77232209       0.32844462       0.24032013       0.16243055       0.53181348
H       -1.16960599      -1.38123780       1.81244282       0.30125957      -0.02070840      -0.25408696
H       -3.75195381      -1.66142266       0.10635252       0.04370819       0.04138807      -0.00219323
H       -2.27372847      -4.19538147       1.47174421      -0.03781060      -0.10610190      -0.07635011
H       -2.87262809       1.22193366       1.54046312      -0.39640533       0.20703802      -0.15596180
H        3.14288187       0.99458254       0.66117579       0.07284223       0.11873002       0.22922715
H       -1.49529898       0.01170774      -0.89369902      -0.21677587      -0.09065614       0.19213569
H       -1.66143031       1.49321085      -3.47461785       0.11504866      -0.17236556      -0.08322397
H       -0.94917602       3.72144516       2.42729475      -0.03921916       0.23664427      -0.08970572
H        0.91271248      -3.64838439       1.30016065      -0.32496102       0.13647222       0.22508009
H       -1.52349544       3.05974486      -0.65950590      -0.23944660       0.13926062       0.07716474
H       -4.13967812       1.23490758      -1.40786764      -0.17610652      -0.33722363      -0.04876282
H       -1.09028810      -2.99433796      -1.07253618       0.07505791      -0.25848291      -0.29649105
H        1.72074952      -0.81569281       2.76553374      -0.07247497       0.13993522       0.01387190
H        1.99908750      -3.45072919      -1.78616764       0.31290994      -0.03118853      -0.08035116
H       -2.99968613      -1.38799774      -3.03671184       0.05637127       0.02378173      -0.04656582
H        0.98114473       1.56506353      -1.77465769       0.05839893      -0.38595268       0.10983097
H        1.12194645      -1.09291976      -0.22489310      -0.04145037      -0.10303901      -0.14145554
H        0.25084608      -1.10497348      -3.16079472      -0.10935642       0.08182392      -0.12013332
H        0.16051489       1.28869594       1.16114136       0.03863098       0.11600616       0.05465709
H       -0.77144246       0.87639637       3.96207806      -0.17481168       0.14886557      -0.12867231
H        1.95472578       2.40581837       3.24641010       0.08383293       0.00296686       0.11467781
25
Properties=species:S:1:pos:R:3:momenta:R:3 pbc="F F F"
H        2.99606614      -2.48464412      -0.82508916       0.21624590      -0.05138690       0.10736961
H        2.24026816      -0.96126044      -3.62585331      -0.10662068      -0.08882502       0.20892410
H        1.66615603       2.17918751      -2.88191374      -0.18574669       0.28432881      -0.03141142
H        2.21570759       2.49915027       0.34487609      -0.22356045       0.14048878       0.20225738
H       -2.07294540      -1.28194970       2.48608772       0.18441961       0.14051380      -0.11312109
H       -4.44590577      -0.90295816       0.25681275      -0.00084361      -0.08518504      -0.09810476
H        0.44616614      -2.32946030       0.96808946       0.23331943       0.03010104      -0.31193277
H       -2.77356264       1.59896555       1.36822001       0.09084687       0.05096423       0.22716739
H        4.09793610       0.54620758      -1.41361481       0.03664801       0.17874336      -0.10324531
H       -1.59343963      -0.54822805      -0.44314971       0.26415417      -0.39482424      -0.24675096
H       -1.32945241       3.12024676      -3.66511115      -0.01684020       0.01873180      -0.18424898
H       -0.31242108       3.55742878       2.07659663      -0.15185445       0.00369258      -0.08517572
H        3.01602108      -3.23170369       2.32267627      -0.08441275       0.22893456       0.07417102
H       -0.65542651       2.34297906      -0.80207529       0.03611280       0.20068547       0.02565853
H       -3.38049957       1.33781973      -1.90652061      -0.05547773      -0.10165783       0.07085203
H       -2.37231452      -3.38122773       0.05801421       0.14130151      -0.09458416       0.19765153
H        3.00607854      -0.29881474       1.47602958      -0.01133406      -0.05529894      -0.09209781
H       -0.04372596      -2.64133502      -2.07259597       0.06070995      -0.01327526      -0.29799080
H       -3.15225699      -1.81497062      -2.62993404      -0.15707895      -0.16719266       0.35165178
H        1.23621225      -0.08098444      -0.98300231      -0.32427338       0.03008369       0.17073042
H        0.12093896       0.64488229       1.61427498       0.11535481      -0.23278249       0.27276217
H       -0.74272399       0.15009374      -3.27549915      -0.15627873      -0.01380951      -0.02706725
H       -1.16380965       1.27054294       4.20469139       0.19021165       0.02401415      -0.13387406
H        0.99597080      -1.18135006       3.80318912      -0.05432342      -0.19522255      -0.21188929
H        2.00096233       1.89138285       3.54480104      -0.04067961       0.16276232       0.02771425
25
Properties=species:S:1:pos:R:3:momenta:R:3 pbc="F F F"
H        4.86960097      -0.82398029      -1.50722673       0.08278256       0.11998648       0.30002174
H        2.19947247       0.53940256      -2.33300212       0.00776911       0.12125116      -0.09330655
H        1.48930813       3.54850824      -1.55302877      -0.02377391      -0.21817248      -0.14352588
H        1.45189389       3.81050556       1.62309406       0.36614337      -0.01637078      -0.06179833
H       -1.31779739      -3.58132599       3.05307174      -0.13824776      -0.08312192       0.08822372
H       -4.78582816      -0.52672143       0.20682915       0.25076108       0.03866222      -0.20364335
H        0.84877498      -3.65074684       0.58760636       0.06382158      -0.23065826      -0.22560472
H       -2.95000760      -0.72624231       2.86053338       0.25010911       0.26297005       0.01995767
H        3.73635909       1.82840950       0.08184579      -0.22706268       0.05950050      -0.12136492
H       -1.97539442       0.42997350       0.27138558       0.05715656      -0.01823985      -0.09771910
H       -0.78840145       1.50726117      -2.35704191      -0.06264252       0.00226184      -0.08406348
H       -3.85373679       2.19781523       1.74075932      -0.01905939      -0.10876903      -0.14232774
H        4.02614547      -3.71309946      -0.06336292       0.00504200      -0.13534493      -0.10770320
H       -1.34228663       3.42148339       0.07218522       0.07953473       0.08254945       0.05519337
H       -3.78416784       2.03961608      -1.47212252       0.05758453       0.32833881      -0.06614780
H       -2.32818509      -2.57367564       0.35080416      -0.07725803       0.22467057      -0.05359986
H        2.62750490      -1.08103744       0.48623844      -0.17352288      -0.05238433       0.08657566
H        2.39272590      -2.54857901      -2.38465254      -0.11060497       0.00491549       0.07900894
H       -2.79060647      -0.88636348      -2.33360081      -0.15197172      -0.13277863      -0.01138731
H        0.80441583       1.26484734       0.23191969      -0.01744787      -0.21938949       0.09559586
H        0.00271135      -1.29903289      -1.10405390      -0.07313705      -0.08969422       0.21993630
H        0.05238706      -0.95036105      -4.08150889       0.11930678       0.25559602       0.09028238
H       -0.85223888       1.83522765       2.74908789      -0.23906305       0.01120462      -0.05443799
H        0.00909103      -1.05364034       2.03779422      -0.08046530      -0.17826081       0.10037319
H        2.25825965       0.99175595       2.83644610       0.05424572      -0.02872248       0.33146141
25
Properties=species:S:1:pos:R:3:momenta:R:3 pbc="F F F"
H        3.53962192      -2.63873969      -2.33444316      -0.19500147      -0.24791921      -0.16598802
H        1.07324177       2.61859471      -3.00913531      -0.41719975      -0.02996915      -0.25277645
H        2.54359825       2.18628349      -0.15208754      -0.09920735       0.27776139      -0.06961615
H        0.39624224       2.62054204       2.06881243       0.02256235       0.22152162       0.03331741
H       -0.62757124      -2.51057860       2.13955910      -0.14963468      -0.06337904       0.21422447
H       -3.43906928      -2.22052042       0.55424477       0.42549535      -0.09530677       0.08257094
H        1.59925023      -2.95688149       0.00087859      -0.19780755       0.02141264       0.01704472
H       -1.90383273       0.27470517       1.69270811      -0.16930085       0.06556071       0.02250832
H        3.88993975      -0.78060482       0.29300762      -0.20053211       0.11315003       0.17699943
H       -3.25597774       0.53640977      -1.10961087      -0.02372917       0.16663310       0.02226784
H       -2.07522868       3.17643130      -2.50004953       0.06747257       0.06685314      -0.05591863
H       -2.05291094       2.38914417       3.87503083       0.19086741      -0.22235656       0.44657621
H        2.46996769      -2.06773135       2.95225235      -0.24689681      -0.18121534      -0.52280885
H        0.22433687       4.45223219      -0.51936094      -0.12530192      -0.10040034      -0.00517357
H       -1.01806341       0.18501657      -3.32389957       0.03665221      -0.04500192      -0.14060636
H       -1.23677078      -4.28159309      -0.53477998       0.16694515      -0.08315942      -0.11984234
H        1.08981520      -0.18397701       1.13164402       0.16704891       0.19155045       0.16420290
H        0.36731868      -2.83060007      -2.95041629       0.18292191      -0.38185270      -0.14058580
H       -2.87163336      -2.34095597      -2.63057009       0.07007919       0.17625065      -0.10935285
H       -0.42049801       1.55731738      -0.65815539       0.17530691       0.07251001       0.13367563
H       -0.87786877      -1.33825798      -0.68838740       0.45354662       0.18094893       0.33199338
H        1.71875680      -0.24388572      -1.88335349       0.00814229      -0.08462873       0.22771494
H       -2.47085237       3.18741167       0.76696358      -0.07565975      -0.09003201      -0.03432652
H        0.21978934       0.08655657       3.97238085       0.00543310       0.06550185      -0.11633964
H        3.11839857       1.12368118       2.84676732      -0.07220256       0.00556666      -0.13976104
25
Properties=species:S:1:pos:R:3:momenta:R:3 pbc="F F F"
H        3.22154177      -2.56755008      -1.63894477      -0.11890495       0.08196453       0.10230161
H        3.48863436       0.62834877      -2.44890100      -0.12369958      -0.11906816       0.01468534
H        1.72245569       2.19827014      -0.41646154       0.02536859       0.02181359       0.12818515
H        2.35441920       1.80981077       2.66022285      -0.09998377       0.00845769       0.08736594
H       -1.08994855      -2.01681520       2.88323603       0.38702820       0.05048737       0.18980520
H       -5.50130640       1.48759708       1.35097017      -0.17585457       0.02334695      -0.06040167
H        1.02175689      -2.77434032       0.69030316       0.14810001      -0.15157566      -0.15101805
H       -2.58193423       0.58740327       1.80533302      -0.07800769      -0.00065962       0.10074384
H        3.23915150      -0.36763459       0.52339353       0.26360892       0.29539370      -0.17881573
H       -1.18882894       1.30143701      -0.81296517       0.19589081      -0.13989512      -0.37918220
H        0.47306523       1.86704422      -3.27389553      -0.10512479       0.04541646       0.06233174
H       -0.50350222       2.95424980       1.67335792       0.18703480      -0.01502431      -0.25936747
H        3.92539458      -3.26745146       1.36003465      -0.09393438      -0.16339396      -0.14780183
H       -0.55862987       4.18118295      -1.30149648      -0.25264625       0.16230197       0.07707207
H       -2.70082538       2.52469769      -3.05374633       0.09799559       0.06729422       0.23105715
H        2.23270937      -5.26970800      -0.55981630      -0.14462808      -0.28741732       0.04856504
H        0.36623727       0.05700125       1.28932297       0.12427154       0.16310921      -0.04967031
H        0.07037358      -3.47430936      -2.14456120      -0.03828143      -0.01325974       0.08300587
H       -3.99134279       0.32304646      -1.09905388      -0.26885536      -0.14656604       0.00259665
H        0.92241291      -0.64688595      -1.56922962       0.16260805       0.19816846       0.11222630
H       -1.71433767      -1.66634182      -0.21370797      -0.10454686      -0.13999571       0.00879033
H       -1.70037163      -0.55841911      -3.14723625       0.04370140       0.02186944       0.15076076
H       -3.26635284       3.23274149       0.08291039      -0.30864518      -0.17112235       0.04430729
H        2.07993769      -1.36829550       3.28055142       0.19989668       0.12303743      -0.07306859
H       -0.32070952       0.82492050       4.08037993       0.07760828       0.08531698      -0.14447440
25
Properties=species:S:1:pos:R:3:momenta:R:3 pbc="F F F"
H        2.61424990      -1.73840696      -2.77525761       0.30797495       0.10127744      -0.12184941
H        2.16112312       1.11135163      -1.59446882      -0.02190318       0.29304978       0.07146337
H        1.03735868       3.52615704       0.07279451      -0.29454828      -0.39713639      -0.02942256
H        3.57032819       1.77023992       1.15772224      -0.08791173      -0.02601166      -0.13322249
H       -0.64085988       0.27441859       3.69359915       0.22622741      -0.14466289       0.13895059
H       -4.63416750      -1.54702218      -0.11515754       0.12974339      -0.14817378       0.19333845
H        0.00048196      -5.17258085       1.80487618      -0.18170529      -0.06121122       0.07569455
H       -2.04301699      -0.40274463       0.96233744       0.05505244       0.32794509      -0.14939898
H        2.98607843      -1.24751572       0.30793909      -0.04969757       0.17521269      -0.09028639
H       -3.80693342       1.60772038      -0.58395878      -0.01203237       0.01641340      -0.34946853
H        0.43603406       3.32471519      -3.06649401       0.10298404      -0.18014463      -0.02836624
H       -1.53460010       2.57969201       1.62547693      -0.56470371       0.21671969       0.01821707
H        2.87617216      -3.57917536       2.36233707       0.16806984      -0.10018566       0.05824282
H       -1.92612230       4.22460226      -1.07562080      -0.06524900       0.18966118      -0.04944602
H       -2.52880186       2.13170159      -3.50584230      -0.07652523       0.14332643      -0.16166521
H       -1.86156984      -3.30507042      -0.08661076       0.03282470      -0.16022699       0.14413210
H        2.49027755      -0.44633037       3.30264591       0.20302767      -0.01909344       0.29671954
H        1.58707199      -3.89153880      -0.48767774       0.28655347       0.01522878      -0.04747577
H       -2.55803017      -0.80511410      -2.23138590      -0.18441801       0.07551080      -0.11679360
H       -0.86485463       1.45298455      -1.14164627      -0.13835235       0.07671437      -0.00055934
H        0.18890028      -1.31788067      -1.06429518       0.11804554      -0.20594924      -0.09052366
H        0.08107891       0.20765277      -3.73764372       0.19520577      -0.12560027       0.09732373
H        0.80426373       0.66699951       1.09942733      -0.00366878       0.04319185       0.32299645
H        0.26402756      -2.15477206       1.89620252       0.02095407      -0.24565433       0.02823281
H        1.30151018       2.72991670       3.18070107      -0.16594781       0.13979902      -0.07683330
25
Properties=species:S:1:pos:R:3:momenta:R:3 pbc="F F F"
H        2.93915072      -1.98759282      -2.30880846       0.04500482       0.06125825      -0.06109830
H        2.28597963       1.12724082      -2.80327404      -0.25361833       0.00434090       0.09584554
H        3.01725458       0.08189977       0.05684781       0.11597118       0.02227513       0.12003609
H        5.27926622       0.62506860       1.99607293      -0.10967117       0.12173788      -0.07360780
H       -2.61059781      -0.49535609       2.65463138       0.24263086       0.13127570      -0.24695632
H       -3.94010225      -3.23012716       2.03049745      -0.01624088      -0.02468498       0.12825632
H       -1.49593835      -2.39964246       0.33512196      -0.02759864      -0.12073957       0.20647205
H       -4.06012662       2.01554826       1.34834015      -0.11422194       0.05505313      -0.01223046
H        4.77703364      -2.33624026       0.37244635       0.15308912      -0.01730203       0.06969319
H       -1.78846802       0.64357050      -0.00054290      -0.17083020       0.04324905      -0.11172278
H       -0.85898017       1.63715736      -2.74572872      -0.30978042      -0.14002111      -0.09615143
H        0.70404583       4.60618585       1.55873722       0.09247190      -0.00437271      -0.22223640
H        1.69167512      -2.86466698       0.43875307      -0.17308956      -0.03784361      -0.06561884
H       -1.85296260       3.63501459      -0.30178603      -0.11521941      -0.28129826      -0.14096016
H       -3.89091740       1.63610565      -1.86169380       0.23276231       0.07680599       0.36183912
H       -4.33250441      -0.91490289      -0.00449623      -0.00028835      -0.04240320       0.19809973
H        3.07414127      -1.34007421       2.82084428       0.38606836       0.14210011       0.04790926
H        0.01917432      -3.45475209      -2.23397333      -0.21756140       0.00249901      -0.21889737
H       -2.29708563      -1.15005734      -2.43450593       0.27101947       0.07164917      -0.01199896
H        0.83277035       2.14381544      -0.20005969      -0.20313412       0.19607371      -0.07682990
H        0.46687301      -0.68576339      -1.23804916      -0.10034057      -0.19270083       0.16735617
H        0.37418404      -0.97283619      -4.19978832       0.20576145      -0.12532709      -0.22357478
H       -1.00858996       2.23221476       2.43637581       0.08827248       0.07747938       0.13099849
H        0.38850075      -0.41495926       1.78792167      -0.07246284      -0.06005083       0.24323697
H        2.28622376       1.86314953       2.49611654       0.05100586       0.04094681      -0.20785943
25
Properties=species:S:1:pos:R:3:momenta:R:3 pbc="F F F"
H        2.22752575      -2.04925271      -0.97719339      -0.15298387       0.05406889       0.04202631
H        2.97895494       0.72700640      -2.50599747       0.03475278      -0.07260998       0.04224904
H        1.34812348       3.05007172      -1.02487986      -0.10036534       0.13194323      -0.06849559
H        1.86259930       3.27258566       2.18345398      -0.14472326       0.04898040      -0.20972692
H       -2.00458299      -0.12764799       2.94676504      -0.05458310       0.15665926      -0.01058135
H       -2.35381046      -2.94796101       1.24297605       0.20186254      -0.11629417      -0.27913812
H        0.62710670      -4.17841561       0.86782429       0.13207822      -0.12885569       0.07246256
H       -3.18383269       2.47803368       1.41421774       0.09997676       0.08266944       0.02295604
H        3.86642633      -2.04313553      -3.59316194      -0.17051801       0.29663584       0.19263030
H       -1.74704429       2.53846149      -1.49487544       0.11192056      -0.00694781      -0.11923588
H        0.29542681       1.89225276      -3.88782180       0.22826819      -0.11561604      -0.03505396
H       -0.95432763       2.84117450       3.70256020       0.10780793       0.18275112       0.13160353
H        2.71350186      -2.12099928       2.20136187      -0.35577918      -0.11136267       0.11486748
H       -0.79103255       4.55122820       0.85887400      -0.01256721      -0.40963191      -0.12733434
H       -2.10277930      -0.25541730      -3.20947207      -0.22502246       0.17954033       0.26276256
H       -3.83378866      -2.46945913      -1.60100916      -0.28167401      -0.01256899      -0.05956679
H        2.52316226       0.61633059       0.62142799       0.09546390       0.08212530       0.01085331
H       -0.78741813      -2.61829911      -1.51400836       0.06956382       0.12636710      -0.00516032
H       -2.50490216      -0.16123222      -0.13091776      -0.10120557      -0.15367316      -0.23618156
H        0.25031736       0.23461666      -1.43626896      -0.11566144      -0.11259819      -0.16107664
H        0.10140266      -1.26205986       1.06003338      -0.16780985       0.02238612      -0.02139061
H        0.86461206      -1.31599754      -3.88817266       0.16484408       0.00862550       0.02052533
H       -0.34725450       1.62646919       1.06582655       0.06392147       0.10359953       0.10584795
H       -0.14289994      -2.64559015       3.66337207       0.17582590       0.01334957       0.09629877
H        1.09451380       0.36723656       3.43508571       0.39660713      -0.24954303       0.21785888
25
Properties=species:S:1:pos:R:3:momenta:R:3 pbc="F F F"
H        2.53474270      -2.65356534      -2.67989253      -0.06680132       0.12755373       0.16103348
H        2.46719730       0.52880240      -3.27065915      -0.27780127       0.28306340      -0.08796521
H        2.55752214       2.12771581      -0.45213122       0.07027597      -0.10580515      -0.10339553
H        1.89322348       2.95647750       2.60159132       0.09472980       0.08590474       0.08359782
H       -2.70242604      -2.99347559       0.89292390       0.22597635      -0.32241746      -0.09647486
H       -4.45914886      -0.50143553      -0.10078800       0.36868052       0.10489098       0.17061380
H        0.10991521      -1.87609462       1.74058118      -0.14989873      -0.06645368       0.07635172
H       -2.36677964      -0.13148085       2.37772920      -0.35707788      -0.08196084      -0.16696740
H        4.35819305      -0.55431175      -0.91841147      -0.09045102       0.01454605      -0.25918500
H       -2.63430798       2.08035335       0.19434047       0.06418459      -0.06952600       0.40890549
H       -2.21706285       3.87397568      -2.23976156      -0.07952554       0.05156957       0.13875406
H       -1.33730911       2.86511251       3.01578846       0.03115960       0.10884793      -0.07515959
H        2.78514976      -2.95849071       0.58666378      -0.01075519      -0.25439604       0.20767352
H       -0.08727094       3.97320858       0.19501403      -0.10328832      -0.14850362      -0.15922001
H       -2.99438111       0.76632023      -2.70198805      -0.13552111      -0.26153557      -0.11632595
H       -3.02581942      -2.49902809      -2.29020283       0.00591144       0.11936962      -0.41162968
H        2.83241182      -0.00189275       1.81114854      -0.04504058      -0.19945850       0.31648229
H       -0.12344636      -3.32825100      -1.01390495       0.21419415       0.05775419       0.08951094
H       -1.52522615      -0.65439864      -0.53030943      -0.12736562      -0.13634175       0.13058086
H       -0.12812202       1.68420921      -1.92596916       0.05756617       0.29476062       0.11396040
H        1.39597126      -0.69784055      -0.77442270      -0.32177119       0.45381299       0.03937666
H       -0.30169823      -1.12351553      -3.28159947      -0.07639638      -0.29134648       0.10408536
H        0.10838682       1.13580536       1.09562224       0.19187990       0.43224703      -0.10776765
H        2.36432203      -2.32681328       3.73302638       0.13485538       0.13453961      -0.34039617
H        0.49596312       0.30861361       3.93561102       0.38228028      -0.33111536      -0.11643936
25
Properties=species:S:1:pos:R:3:momenta:R:3 pbc="F F F"
H        3.67229796      -2.10602228      -1.65048017       0.30088952      -0.27529762       0.39146472
H        1.59753415      -0.01834733      -3.09277338       0.07656674      -0.17418101      -0.27339546
H        0.90730411       2.18211442      -0.98778096      -0.26986365      -0.39149399       0.15179276
H        2.31468701       1.71033515       1.72906820      -0.11049897       0.33944664      -0.12500993
H       -1.77258803      -0.97721129       3.42594062      -0.16470356      -0.12822813       0.02720984
H       -3.28211069      -0.44568409       0.55114571      -0.12794519      -0.00465192      -0.27439105
H       -0.02399846      -3.70177667       3.35243464       0.14276960      -0.16773873      -0.04600684
H       -2.86739211       2.00623530       2.61706524      -0.21134603       0.38888957       0.15056473
H        3.84650467       1.07236343      -1.05508059      -0.00339870       0.02774190       0.05069146
H       -2.36293043       2.33242690      -0.52971524      -0.27524053       0.24672824      -0.20096375
H       -1.02086008       2.02836027      -3.41969791       0.17237876      -0.10895261       0.04714585
H       -0.30045433       3.68719997       1.46484864      -0.06137287      -0.03169739      -0.07652013
H        2.08365264      -3.41667982       0.91453687      -0.14283966      -0.04591311      -0.00055575
H       -0.72289893       4.67934102      -1.58852864       0.07255327      -0.15030917       0.04399211
H       -3.64193401       0.29906127      -2.60636702       0.00100546       0.10381777       0.37410436
H       -2.65435373      -2.63177689      -1.75856155       0.15463760       0.10927930       0.06416401
H        4.15323513      -0.96692421       1.40021200       0.01317995      -0.15639692       0.13180672
H        0.55755784      -2.80026757      -1.99184303       0.30871305       0.34338248       0.06828961
H       -0.95714979      -0.20240697      -1.44161465      -0.00491218      -0.13088901       0.16821664
H        1.61153217      -0.65366211      -0.10244764       0.01504322       0.43132022      -0.04366526
H       -0.81490710      -2.30359248       0.76871875      -0.03308143      -0.15263267      -0.11362477
H       -1.17789549      -1.15560949      -4.23350216       0.25420439       0.27464131      -0.08307351
H       -0.55031862       0.71887802       1.29753900      -0.00318813       0.17095920      -0.29493956
H        1.35698192      -1.01629387       2.90342848      -0.05583261      -0.30272133       0.12026502
H        0.04850418       1.67993932       4.03345479      -0.04771804      -0.21510301      -0.25756182
25
Properties=species:S:1:pos:R:3:momenta:R:3 pbc="F F F"
H        3.79241402      -0.14790764      -1.48668428       0.00976017      -0.29136720       0.19235552
H        1.04412605       0.00424620      -3.12724612      -0.15998326      -0.01970425       0.21595357
H        2.53367433       2.75202669      -2.24131222       0.25950275      -0.04468592       0.03221728
H        1.41273355       1.58118813       2.71537462       0.00143044      -0.04236543       0.01440106
H       -1.59852353      -2.61718609       3.40520268       0.03597260      -0.04621322       0.10424033
H       -3.66889226      -1.85704089      -1.68899844       0.11298052      -0.26244352       0.04999088
H       -1.40779828      -3.17687387       0.19943396      -0.08357438       0.10170285      -0.01970777
H       -3.08355135      -0.71395650       1.28708301       0.13308830      -0.10552267       0.20866365
H        3.81695259       2.19153111       0.72486251      -0.11962081       0.13629384       0.05925192
H       -3.57943922       1.31568847      -1.18823688       0.13827939       0.11487891       0.06958967
H       -0.65419677       2.44005498      -2.03494140      -0.05725202      -0.09849114       0.04714635
H       -0.67692206       3.74238635       3.23870669       0.02917682       0.19992219      -0.49278450
H        1.21429666      -3.49907353       2.03056283       0.11806478      -0.03994854       0.09820804
H        1.01435652       3.81501345       0.47449673      -0.43568886       0.05525142      -0.02843049
H       -2.13009446       0.16822112      -3.80041227      -0.04878542       0.00176303      -0.40735297
H       -0.83355944      -2.69750848      -2.94267717       0.28138195      -0.01982421       0.03825062
H        3.00512335      -0.84944583       1.56709745      -0.20370543       0.15290267       0.18875121
H        1.39867461      -2.10669137      -0.80906904       0.02932434      -0.00957903      -0.08449762
H       -1.15208392      -0.41588642      -1.06679211       0.15231326      -0.09639692      -0.00368723
H        1.31094137       0.93567777      -0.24994213       0.04271659      -0.17368398      -0.12024137
H       -0.05482351      -0.84095945       1.61057121      -0.11302998       0.06101723       0.02990457
H       -0.13624533      -1.34102394      -5.64362536      -0.00729288       0.31025860      -0.13662543
H       -1.35869311       1.86111238       0.94840598      -0.12430844       0.06852865      -0.10968798
H        1.21944848      -1.18444665       4.26973631      -0.04199279       0.09032442       0.35035979
H       -1.42791827       0.64085402       3.80840341       0.05124235      -0.04261778      -0.29626908
