32
# CELL(abcABC):   20.69829    20.69829    10.34915    90.00000    90.00000    90.00000  RPQA inherent  Step:        1250  Bead:      30  Potential: -1.38796153e+02 eV positions{atomic_unit}  cell{atomic_unit}
      Si  9.39025e+00  1.08630e+01  4.09710e+00
      Si  1.80195e+01  2.61789e+00  1.73803e+00
      Si  7.34629e+00  1.34957e+01  8.87388e-01
      Si  4.49468e+00  7.39120e+00 -1.68527e+00
      Si -3.30551e-01  1.77901e+01 -2.43126e+00
      Si  1.45991e+01  1.46303e+01  6.74208e+00
      Si  4.50827e+00  2.14647e+01  4.62420e+00
      Si  1.56513e+01  5.68461e+00  3.94540e+00
      Si  1.15581e+01  1.46179e+01  3.44987e+00
      Si  1.39923e+00  7.26448e+00  5.46232e+00
      Si  7.92748e+00  1.02322e+01  8.19950e+00
      Si  6.43154e+00  3.25994e+00  7.99909e+00
      Si  3.74039e+00  1.73021e+01  6.16821e+00
      Si  1.48102e+01  2.49520e+00  7.24579e+00
      Si  6.97133e-01  2.99005e+00  4.61754e+00
      Si  1.16294e+01  7.82871e+00  9.02783e+00
      Si  2.01350e+01  1.51029e+01  1.21772e+00
      Si -2.05859e+00  1.08912e+01  1.20503e+00
      Si  1.04633e+01  4.22087e+00  6.30352e+00
      Si  1.51989e+01  1.99235e+01  2.49721e+00
      Si  1.79859e+01  9.11122e+00  5.27052e+00
      Si  7.25518e+00  4.90908e-01  1.14366e+01
      Si  1.42278e+01  1.88412e+01  8.63907e+00
      Si  1.53508e+01  1.05563e+01  8.53695e+00
      Si  1.14960e+01  7.09388e+00  2.97600e+00
      Si  3.42546e+00  1.38823e+01  3.00358e+00
      Si  1.10125e+01  2.13109e+01  3.56086e+00
      Si  1.76834e+01  1.67986e+01  4.50458e+00
      Si  7.04880e+00  1.73613e+01  9.12076e+00
      Si  1.04357e+01 -2.82091e+00  6.34151e+00
      Si  1.91788e+01  1.38671e+00  8.06491e+00
      Si  2.26267e+00  9.42666e+00  1.72353e+00
32
# CELL(abcABC):   20.69829    20.69829    10.34915    90.00000    90.00000    90.00000  RPQA inherent  Step:        2500  Bead:      30  Potential: -1.36335656e+02 eV positions{atomic_unit}  cell{atomic_unit}
      Si  1.05956e+01  8.85953e+00 -5.46745e-01
      Si  1.75335e+01 -4.82576e-01  4.60067e+00
      Si  6.22242e+00  8.04185e+00  8.93301e-01
      Si  7.75210e+00  8.00618e+00  4.96504e+00
      Si  2.07733e-01  1.77972e+01 -1.10628e+00
      Si  1.23427e+01  1.32198e+01  4.77722e+00
      Si  9.91606e+00  2.27208e+01  8.74022e+00
      Si  2.04718e+01  4.74456e+00  1.11348e+01
      Si  1.10660e+01  1.69256e+01  2.38017e+00
      Si  4.20857e-01  8.66325e+00  7.93595e+00
      Si  8.87087e+00  1.18858e+01  7.06997e+00
      Si  6.47346e+00  4.96394e+00  7.99758e+00
      Si  4.42589e+00  1.88086e+01  8.18153e+00
      Si  1.71824e+01 -6.22305e-01  1.05323e+01
      Si  1.01172e+00  1.82548e+00  3.99459e+00
      Si  1.19332e+01  8.91298e+00  3.49916e+00
      Si  1.83167e+01  1.11878e+01  5.67240e-01
      Si -2.81139e+00  9.66985e+00  4.94273e+00
      Si  1.30161e+01  5.23463e+00  8.51603e+00
      Si  6.59460e+00  1.68364e+01  1.39996e+00
      Si  1.59478e+01  1.35212e+01  7.51785e+00
      Si  5.02592e+00 -4.87749e-01  1.43024e+01
      Si  1.39031e+01  1.73409e+01  9.29764e+00
      Si  1.51450e+01  6.17228e+00  4.71405e+00
      Si  1.61582e+01  3.77320e+00  9.59256e-01
      Si  5.40082e+00  1.43503e+01  8.06976e+00
      Si  9.32016e+00  2.14817e+01  2.76744e+00
      Si  1.90317e+01  1.61030e+01  5.58659e+00
      Si  3.59746e-01  1.44785e+01  1.22612e+01
      Si  1.26558e+01 -7.61506e-01  5.73559e+00
      Si  2.28095e+01  4.34094e+00  7.45882e+00
      Si  3.21309e+00  1.12818e+01 -4.77166e-02
32
# CELL(abcABC):   20.69829    20.69829    10.34915    90.00000    90.00000    90.00000  RPQA inherent  Step:        3750  Bead:      30  Potential: -1.36781307e+02 eV positions{atomic_unit}  cell{atomic_unit}
      Si  1.42733e+01  1.00317e+01 -4.03591e-01
      Si  1.58989e+01  2.66427e+00  7.40649e+00
      Si  3.30555e+00  6.36554e+00  1.44737e+00
      Si  6.12551e+00  6.50155e+00  4.87862e+00
      Si  5.43996e+00  1.94648e+01  8.96023e-01
      Si  1.52439e+01  1.91334e+01  6.44593e+00
      Si  9.87440e-01  2.06928e+01  6.41981e+00
      Si  1.81003e+01  7.87854e+00  1.00949e+01
      Si  1.12154e+01  1.80733e+01  5.07101e+00
      Si -1.07872e-01  7.27744e+00  6.53764e+00
      Si  1.21527e+01  1.14760e+01  6.30821e+00
      Si  6.07726e+00  2.73087e+00  7.32256e+00
      Si  3.05108e+00  1.28576e+01  7.98962e+00
      Si  1.63871e+01  3.79893e+00  1.17877e+01
      Si  2.49316e+00  2.01519e+00 -1.25068e-01
      Si  1.45740e+01  1.30483e+01  2.81010e+00
      Si  1.89622e+01  1.38343e+01  2.82636e+00
      Si -1.49990e-02  9.60126e+00  2.87614e+00
      Si  1.25664e+01  6.29235e+00  1.15954e+01
      Si  1.26182e+01  1.67077e+01  1.17761e+00
      Si  1.96931e+01  1.39546e+01  8.85248e+00
      Si  9.32871e+00  1.08813e+00  1.03901e+01
      Si  1.59394e+01  1.97648e+01  1.09419e+01
      Si  1.04183e+01  7.53134e+00  4.90052e+00
      Si  1.16515e+01  4.18441e+00  7.63422e+00
      Si  1.01168e+01  1.50958e+01  8.13117e+00
      Si  5.07346e+00  1.94297e+01  5.22719e+00
      Si  1.90588e+01  1.71186e+01  5.92686e+00
      Si  5.83501e+00  1.61774e+01  8.24168e+00
      Si  9.42367e+00  1.34090e+00  4.48588e+00
      Si  1.94363e+01  3.39558e+00  4.77336e+00
      Si  3.94134e+00  8.59461e+00 -2.29448e+00
32
# CELL(abcABC):   20.69829    20.69829    10.34915    90.00000    90.00000    90.00000  RPQA inherent  Step:        5000  Bead:      30  Potential: -1.36835321e+02 eV positions{atomic_unit}  cell{atomic_unit}
      Si  1.13890e+01  1.13862e+01  2.11180e+00
      Si  1.79714e+01  2.78496e+00  5.03559e+00
      Si  2.04869e+00  6.64562e+00  3.68766e+00
      Si  3.97900e+00  1.45676e+01  4.35166e+00
      Si  3.48893e+00  2.07325e+01  2.44914e+00
      Si  1.42817e+01  2.13467e+01  6.30106e+00
      Si  8.23863e+00  1.76675e+01  9.74561e+00
      Si  1.71218e+01  6.62979e+00  1.10303e+01
      Si  1.34012e+01  1.92426e+01  2.50614e+00
      Si  1.45913e-01  8.80831e+00  9.26088e+00
      Si  7.85796e+00  8.66819e+00  2.03980e+00
      Si  4.20674e+00  4.05437e+00  6.89002e+00
      Si  1.43460e+00  1.67684e+01  7.27934e+00
      Si  1.84133e+01  2.40095e+00  1.09829e+01
      Si  2.02554e+00  3.52321e+00  3.77350e-01
      Si  1.37566e+01  9.21538e+00  5.31672e+00
      Si  1.73490e+01  1.20435e+01  4.66547e+00
      Si -2.15611e+00  7.35270e+00  5.22774e+00
      Si  1.43788e+01  9.86611e+00  9.62720e+00
      Si  1.07430e+01  1.57523e+01  2.50043e+00
      Si  1.82069e+01  1.21426e+01  1.07154e+01
      Si  1.03349e+01  1.73706e+00  1.16937e+01
      Si  1.63479e+01  1.92844e+01  9.60745e+00
      Si  4.79688e+00  8.33778e+00 -1.44494e+00
      Si  1.08440e+01  5.64153e+00  3.95173e+00
      Si  7.74045e+00  1.67687e+01  5.54159e+00
      Si  7.28979e+00  2.12923e+01  4.66980e+00
      Si  1.80372e+01  1.53687e+01  7.78784e+00
      Si  4.03515e+00  1.68616e+01  1.08552e+01
      Si  1.03721e+01  2.67270e+00  7.32399e+00
      Si  2.16846e+01  3.94016e-01  5.99477e+00
      Si  4.76276e+00  1.01417e+01 -5.52021e+00
32
# CELL(abcABC):   20.69829    20.69829    10.34915    90.00000    90.00000    90.00000  RPQA inherent  Step:        6250  Bead:      30  Potential: -1.38435812e+02 eV positions{atomic_unit}  cell{atomic_unit}
      Si  6.41159e+00  9.88577e+00 -8.97932e-01
      Si  1.86268e+01  2.53540e+00  3.50484e+00
      Si  2.61712e+00  1.08754e+01  3.91676e+00
      Si  3.55233e+00  1.52490e+01  4.48088e+00
      Si  5.26083e+00  2.11812e+01  2.40028e+00
      Si  1.61113e+01  1.95913e+01  4.30808e+00
      Si  4.07559e+00  1.71432e+01  1.09590e+01
      Si  1.57382e+01  6.13961e+00  8.60091e+00
      Si  1.24255e+01  1.88980e+01  1.78435e+00
      Si -4.44429e-01  9.76806e+00  6.87147e+00
      Si  5.95010e+00  8.29238e+00  5.44187e+00
      Si  4.70318e+00  3.82085e+00  6.31278e+00
      Si  1.28403e+00  1.76850e+01  7.47925e+00
      Si  1.82596e+01  2.52384e+00  9.51722e+00
      Si  4.50890e+00  4.56059e+00  3.54360e-01
      Si  1.32033e+01  1.14531e+01  4.02969e+00
      Si  1.76852e+01  1.65826e+01  7.41511e+00
      Si -2.95153e+00  6.80585e+00  4.62466e+00
      Si  1.16741e+01  5.29810e+00  7.19528e+00
      Si  1.06165e+01  1.49166e+01  2.66431e+00
      Si  1.60829e+01  9.66028e+00  1.14501e+01
      Si  9.18573e+00  1.04466e+00  1.08064e+01
      Si  1.52213e+01  2.00182e+01  8.82189e+00
      Si  8.96248e+00  5.84309e+00  3.72159e-01
      Si  1.01932e+01  8.01090e+00  4.06888e+00
      Si  7.73952e+00  1.61359e+01  5.86476e+00
      Si  7.73639e+00  2.06731e+01  6.51424e+00
      Si  1.64515e+01  1.22821e+01  7.46013e+00
      Si  7.51701e+00  1.42597e+01  9.82207e+00
      Si  1.20629e+01  1.07183e+00  5.80654e+00
      Si  2.15627e+01  1.44646e+00  6.60003e+00
      Si  2.19908e+00  8.60809e+00  9.00522e-02
32
# CELL(abcABC):   20.69829    20.69829    10.34915    90.00000    90.00000    90.00000  RPQA inherent  Step:        7500  Bead:      30  Potential: -1.37405499e+02 eV positions{atomic_unit}  cell{atomic_unit}
      Si  1.08282e+01  1.10071e+01 -1.05885e+00
      Si  1.81915e+01  1.75202e+00  5.19656e+00
      Si  2.61481e+00  8.06109e+00  6.61316e+00
      Si  2.30426e+00  1.25437e+01  5.05332e+00
      Si  6.36586e+00  1.82095e+01  5.12773e+00
      Si  1.95724e+01  1.52101e+01  3.50013e+00
      Si  3.04934e+00  1.84992e+01  8.08892e+00
      Si  1.65336e+01  7.54056e+00  8.73239e+00
      Si  1.32049e+01  1.93282e+01  5.33732e+00
      Si -1.87262e+00  8.79365e+00  1.23049e+01
      Si  5.42880e+00  1.48840e+01  2.02257e+00
      Si  6.48533e+00  5.69752e+00  5.97311e+00
      Si  5.65653e-01  1.94136e+01  4.40735e+00
      Si  1.49898e+01  1.29623e+00  1.23880e+01
      Si  5.77904e+00  3.85579e+00  1.94402e+00
      Si  1.24402e+01  8.86283e+00  2.71712e+00
      Si  1.79383e+01  1.53243e+01  9.57576e+00
      Si  2.25243e+00  9.88807e+00  2.62861e-01
      Si  1.31413e+01  5.11107e+00  1.06876e+01
      Si  1.22063e+01  1.53736e+01  3.46463e+00
      Si  1.53336e+01  1.18274e+01  8.01610e+00
      Si  3.97279e+00 -1.79480e-01  1.20835e+01
      Si  1.64111e+01  1.96956e+01  8.60220e+00
      Si  6.69793e+00  1.05932e+01  1.48388e+00
      Si  8.90309e+00  9.35365e+00  5.30501e+00
      Si  8.99462e+00  1.40732e+01  6.32172e+00
      Si  9.53776e+00  2.00866e+01  7.72031e+00
      Si  1.56382e+01  1.22058e+01  3.58644e+00
      Si  9.42152e+00  1.63039e+01  1.03331e+01
      Si  8.99700e+00  3.60623e+00  9.21538e+00
      Si  1.93638e+01  6.14102e+00  5.55845e+00
      Si  1.76467e+00  1.43474e+01 -1.08478e+00
32
# CELL(abcABC):   20.69829    20.69829    10.34915    90.00000    90.00000    90.00000  RPQA inherent  Step:        8750  Bead:      30  Potential: -1.48031726e+02 eV  PINNED positions{atomic_unit}  cell{atomic_unit}
      Si  9.13716e+00  7.24970e+00  2.94499e+00
      Si  1.68992e+01 -5.11577e-01  5.53298e+00
      Si  6.55059e+00  9.83722e+00  5.53289e+00
      Si  6.55021e+00  1.50117e+01  3.57889e-01
      Si  1.37532e+00  1.50115e+01  5.53261e+00
      Si  1.94866e+01  1.75997e+01  2.94536e+00
      Si  1.37572e+00  2.01869e+01  1.07069e+01
      Si  1.94858e+01  7.25092e+00  2.94516e+00
      Si  1.43114e+01  1.24256e+01  2.94584e+00
      Si  3.96255e+00  7.25009e+00  8.11994e+00
      Si -3.79906e+00  1.50121e+01  1.07072e+01
      Si  6.54980e+00  4.66229e+00  1.07069e+01
      Si  1.37483e+00  2.53622e+01  5.53226e+00
      Si  1.68987e+01  4.66281e+00  1.07075e+01
      Si  3.96211e+00  2.07594e+00  2.94565e+00
      Si  1.17247e+01 -5.12102e-01  3.58177e-01
      Si  1.94865e+01  2.27745e+01  8.11993e+00
      Si  1.37540e+00  9.83725e+00  3.58026e-01
      Si  1.17245e+01  9.83784e+00  1.07072e+01
      Si  9.13688e+00  1.75993e+01  2.94501e+00
      Si  1.94861e+01  1.24243e+01  8.12007e+00
      Si  9.13694e+00  2.07437e+00  8.11986e+00
      Si  1.43118e+01  1.75994e+01  8.11990e+00
      Si  3.96310e+00  1.24244e+01  2.94530e+00
      Si  1.43111e+01  7.24969e+00  8.11978e+00
      Si  9.13748e+00  1.24252e+01  8.11970e+00
      Si  6.54904e+00  2.01858e+01  5.53253e+00
      Si  1.17241e+01  1.50132e+01  5.53252e+00
      Si  3.96251e+00  1.75987e+01  8.12012e+00
      Si  1.17240e+01  4.66192e+00  5.53223e+00
      Si  1.43117e+01  2.07522e+00  2.94537e+00
      Si -3.79982e+00  9.83751e+00  5.53269e+00
32
# CELL(abcABC):   20.69829    20.69829    10.34915    90.00000    90.00000    90.00000  RPQA inherent  Step:       10000  Bead:      30  Potential: -1.48031729e+02 eV  PINNED positions{atomic_unit}  cell{atomic_unit}
      Si  9.13719e+00  7.24980e+00  2.94496e+00
      Si  1.68993e+01 -5.11526e-01  5.53290e+00
      Si  6.55038e+00  9.83719e+00  5.53277e+00
      Si  6.55006e+00  1.50117e+01  3.57966e-01
      Si  1.37525e+00  1.50115e+01  5.53255e+00
      Si  1.94866e+01  1.75996e+01  2.94534e+00
      Si  1.37554e+00  2.01869e+01  1.07070e+01
      Si  1.94857e+01  7.25076e+00  2.94513e+00
      Si  1.43115e+01  1.24254e+01  2.94567e+00
      Si  3.96269e+00  7.25011e+00  8.11988e+00
      Si -3.79909e+00  1.50121e+01  1.07073e+01
      Si  6.54980e+00  4.66233e+00  1.07069e+01
      Si  1.37486e+00  2.53620e+01  5.53236e+00
      Si  1.68987e+01  4.66291e+00  1.07074e+01
      Si  3.96225e+00  2.07588e+00  2.94561e+00
      Si  1.17246e+01 -5.12021e-01  3.58134e-01
      Si  1.94865e+01  2.27744e+01  8.11993e+00
      Si  1.37545e+00  9.83739e+00  3.58064e-01
      Si  1.17245e+01  9.83775e+00  1.07073e+01
      Si  9.13679e+00  1.75995e+01  2.94501e+00
      Si  1.94862e+01  1.24244e+01  8.12000e+00
      Si  9.13690e+00  2.07454e+00  8.11977e+00
      Si  1.43120e+01  1.75994e+01  8.11998e+00
      Si  3.96302e+00  1.24243e+01  2.94538e+00
      Si  1.43112e+01  7.24973e+00  8.11978e+00
      Si  9.13757e+00  1.24250e+01  8.11970e+00
      Si  6.54919e+00  2.01860e+01  5.53248e+00
      Si  1.17242e+01  1.50129e+01  5.53261e+00
      Si  3.96241e+00  1.75987e+01  8.12008e+00
      Si  1.17240e+01  4.66209e+00  5.53244e+00
      Si  1.43118e+01  2.07520e+00  2.94542e+00
      Si -3.79994e+00  9.83755e+00  5.53278e+00
32
# CELL(abcABC):   20.69829    20.69829    10.34915    90.00000    90.00000    90.00000  RPQA inherent  Step:       11250  Bead:      30  Potential: -1.48031731e+02 eV  PINNED positions{atomic_unit}  cell{atomic_unit}
      Si  9.13719e+00  7.24987e+00  2.94502e+00
      Si  1.68994e+01 -5.11614e-01  5.53281e+00
      Si  6.55029e+00  9.83720e+00  5.53265e+00
      Si  6.54994e+00  1.50117e+01  3.57988e-01
      Si  1.37522e+00  1.50116e+01  5.53249e+00
      Si  1.94865e+01  1.75995e+01  2.94536e+00
      Si  1.37541e+00  2.01868e+01  1.07071e+01
      Si  1.94858e+01  7.25066e+00  2.94520e+00
      Si  1.43115e+01  1.24252e+01  2.94550e+00
      Si  3.96270e+00  7.25010e+00  8.11988e+00
      Si -3.79906e+00  1.50121e+01  1.07073e+01
      Si  6.54986e+00  4.66245e+00  1.07070e+01
      Si  1.37497e+00  2.53618e+01  5.53243e+00
      Si  1.68987e+01  4.66291e+00  1.07072e+01
      Si  3.96230e+00  2.07580e+00  2.94551e+00
      Si  1.17245e+01 -5.11895e-01  3.58043e-01
      Si  1.94864e+01  2.27743e+01  8.11996e+00
      Si  1.37545e+00  9.83742e+00  3.58038e-01
      Si  1.17246e+01  9.83758e+00  1.07073e+01
      Si  9.13683e+00  1.75994e+01  2.94513e+00
      Si  1.94862e+01  1.24245e+01  8.11997e+00
      Si  9.13689e+00  2.07484e+00  8.11979e+00
      Si  1.43120e+01  1.75994e+01  8.11998e+00
      Si  3.96286e+00  1.24244e+01  2.94547e+00
      Si  1.43112e+01  7.24985e+00  8.11986e+00
      Si  9.13744e+00  1.24248e+01  8.11978e+00
      Si  6.54927e+00  2.01862e+01  5.53254e+00
      Si  1.17243e+01  1.50126e+01  5.53257e+00
      Si  3.96234e+00  1.75988e+01  8.11998e+00
      Si  1.17240e+01  4.66232e+00  5.53252e+00
      Si  1.43118e+01  2.07536e+00  2.94542e+00
      Si -3.79989e+00  9.83753e+00  5.53279e+00
