32
Lattice="10.953063515395167 0.0 0.0 6.706817087493174e-16 10.953063515395167 0.0 3.3534101638845515e-16 3.353410163884551e-16 5.476534403583672" Properties=species:S:1:pos:R:3:energies:R:1:forces:R:3 energy=-148.03174467683579 pbc="T T T"
Si       4.83519278       3.83646604       1.55843749      -4.62598467       0.00000491       0.00020447       0.00026678
Si       8.94277747      -0.27073447       2.92783700      -4.62599982      -0.00079326       0.00022386      -0.00028065
Si       3.46626424       5.20562213       2.92775233      -4.62599140      -0.00054936      -0.00000605      -0.00002331
Si       3.46607903       7.94384964       0.18943909      -4.62599879      -0.00038455       0.00016026       0.00002217
Si       0.72773509       7.94379672       2.92766767      -4.62598419      -0.00018630       0.00060032       0.00016587
Si      10.31181185       9.31325444       1.55861741      -4.62598811       0.00024482      -0.00062811      -0.00017748
Si       0.72783564      10.68239466       5.66595339      -4.62598260      -0.00029832      -0.00047023       0.00006396
Si      10.31144143       3.83688409       1.55853274      -4.62598871       0.00022728      -0.00065088      -0.00002705
Si       7.57331975       6.57513277       1.55869150      -4.62599610       0.00066513      -0.00057411      -0.00036030
Si       2.09697056       3.83658775       4.29685551      -4.62599078       0.00005504       0.00004969       0.00000037
Si      -2.01037600       7.94406131       5.66605922      -4.62598400      -0.00036685      -0.00014900       0.00004545
Si       3.46603669       2.46726232       5.66590047      -4.62598632      -0.00019807       0.00051297       0.00025583
Si       0.72760280      13.42088676       2.92763592      -4.62599439       0.00021774      -0.00089304       0.00021621
Si       8.94240705       2.46750574       5.66600631      -4.62599545       0.00051336       0.00017912       0.00016547
Si       2.09675889       1.09846607       1.55869679      -4.62599157       0.00021802      -0.00013790      -0.00030876
Si       6.20433829      -0.27088317       0.18946820      -4.62600210       0.00008873       0.00029584       0.00016552
Si      10.31175894      12.05164071       4.29689784      -4.62599281       0.00001212      -0.00037928      -0.00007431
Si       0.72785680       5.20573855       0.18946555      -4.62599690      -0.00030479      -0.00006558       0.00001738
Si       6.20439121       5.20582321       5.66605922      -4.62598887      -0.00064981      -0.00029142      -0.00023368
Si       4.83500228       9.31320153       1.55849570      -4.62600906       0.00025710      -0.00015620       0.00019907
Si      10.31165310       6.57476234       4.29690313      -4.62598924      -0.00002757       0.00028795      -0.00015217
Si       4.83503403       1.09795806       4.29680788      -4.62600011       0.00004568       0.00090702      -0.00004694
Si       7.57358434       9.31320153       4.29690842      -4.62599398      -0.00020662      -0.00025699      -0.00021464
Si       2.09705523       6.57470942       1.55867562      -4.62599649      -0.00030777       0.00030403      -0.00029343
Si       7.57316100       3.83645545       4.29684492      -4.62598937       0.00034642       0.00025358      -0.00024351
Si       4.83532508       6.57492110       4.29680259      -4.62598981      -0.00012860      -0.00033666       0.00018156
Si       3.46572448      10.68207715       2.92769412      -4.62599789       0.00048389       0.00044399       0.00011617
Si       6.20423245       7.94432590       2.92771000      -4.62600172       0.00021581      -0.00070853       0.00038647
Si       2.09678006       9.31288402       4.29690842      -4.62598811      -0.00008626       0.00058280       0.00001112
Si       6.20407370       2.46719353       2.92768354      -4.62598194       0.00064365       0.00066193       0.00013660
Si       7.57347851       1.09823323       1.55864916      -4.62598342      -0.00028981       0.00005237       0.00008250
Si      -2.01081522       5.20579676       2.92782642      -4.62598595       0.00053824      -0.00001621      -0.00006228
