16
Lattice="1.7439050659039483e-16 5.47748410970072 5.47748410970072 5.47748410970072 2.9140779775007323e-16 5.47748410970072 5.47748410970072 5.47748410970072 3.8774317075040437e-16" Properties=species:S:1:pos:R:3 pbc="T T T"
Si       7.59302457       8.14455866       8.72949745
Si       4.09861473       5.19094854       4.32008121
Si       3.39063212       3.21594729       2.73175529
Si       7.75163645       4.59510135       4.72325346
Si       5.74017609       7.63000008       5.52117906
Si       2.66231587       0.83081753       2.65201778
Si       9.96674923       8.35950191       8.03965134
Si       5.35322479       3.14351693       4.04684885
Si       5.81876567       5.37364452       6.13621878
Si       7.68789294       8.54325048       6.35381789
Si       5.79396610       6.67262600       3.41779561
Si       2.26537971       5.37445440       5.92015197
Si       4.87912227       5.16034167       8.37425233
Si       4.10276633       3.77465215       0.55888326
Si       5.44860551       5.55650049      10.71684443
Si       4.33361171       2.07708778       5.82851762
16
Lattice="1.7439050659039483e-16 5.47748410970072 5.47748410970072 5.47748410970072 2.9140779775007323e-16 5.47748410970072 5.47748410970072 5.47748410970072 3.8774317075040437e-16" Properties=species:S:1:pos:R:3:momenta:R:3 pbc="T T T"
Si       7.64537302       8.58662035       8.56052923      -6.73254159       4.67760050      -5.60511065
Si       4.27069582       3.80748976       4.27872139       0.24961625      -0.12731253       3.88840545
Si       1.96192150       3.13682130       3.89457843       0.99862793      -0.61913843      -1.95079451
Si       8.61809521       4.47621880       4.86422713      -0.74616287      -2.08614671      -1.81499146
Si       5.81889424       7.13744295       4.81510737      -4.65031154       4.88361102       0.84068659
Si       1.84187304       2.50434319       1.59262543       5.11059155      -4.19984136       4.51120963
Si       8.15796503       6.34686623       8.18575750      -1.91935135      -3.13270492      -1.98982372
Si       5.33386521       8.02665231       8.19157170       6.16120127       1.20387181       0.52337531
Si       7.04401024       5.64909142       6.16070639       4.37070659      -0.32083778      -0.87128856
Si       3.45031697       4.65904452       7.36713037      -0.06218736       0.96852183       2.68958793
Si       4.95440918       5.75824746       3.05141053       1.88806583      -2.63032423       4.02023106
Si       1.35392130       0.24275466       1.26226821      -1.92846063       1.57945734      -0.60260705
Si       4.62284277       5.84990132       9.03302061      -0.42444323      -0.00545591      -2.27473076
Si       4.14023402       8.24480500       6.15669610       0.21339876      -0.84489717      -1.19273276
Si       1.26946475       5.31026611       4.34069038      -5.95027874       5.66618130       4.76818947
Si       5.44763357       3.90638439       6.31572557       3.42152910      -5.01258476      -4.93960597
16
Lattice="1.7439050659039483e-16 5.47748410970072 5.47748410970072 5.47748410970072 2.9140779775007323e-16 5.47748410970072 5.47748410970072 5.47748410970072 3.8774317075040437e-16" Properties=species:S:1:pos:R:3:momenta:R:3 pbc="T T T"
Si       8.56297026       6.95661688       8.39818204       2.09780432      -3.79285981       2.41320797
Si       4.76415515       5.57913822       4.41447837      -5.58583229       6.35126550       1.76189562
Si       3.38529363       2.39254147       3.19328688      -1.98133455      -3.77248827      -0.65571281
Si       8.85077465       3.67757118       5.51502817      -1.70346531       2.67353902      -2.23951624
Si       5.80905241       6.54075199       6.29485959      -4.61918631      -6.45471382      -5.17241372
Si       1.24075145       3.26940381       2.57200193       4.28723042      -0.01676499      -4.15505810
Si      10.03096295       9.18798792       8.95789615      -0.40566872       0.60919536      -1.09885244
Si       4.02637691       3.34755093       5.20089130      -2.65203211       0.45357713      -1.07436822
Si       7.62472341       5.18238015       6.97017604       7.26854044       0.38474102      -1.01536472
Si       7.61029925       8.37540409       6.61608603       3.17529880       1.25470345       7.16053151
Si       5.64911453       5.56187483       2.22039777       1.50222441       0.36664190       0.79281067
Si       2.31144860       5.29635082       6.68159000      -0.78649915      -0.72311591       2.97019248
Si       4.19485486       5.78986942       7.93441611      -1.48489440      -3.17065792       0.90139927
Si       4.96469720       3.33845104       1.68038683       0.33780862       0.34493308      -5.18410439
Si       2.19883404       7.11032993       5.13427430       5.25752887       5.83414273       1.45672489
Si       5.66217479       2.03672709       6.28681482      -4.70752303      -0.34213848       3.13862824
16
Lattice="1.7439050659039483e-16 5.47748410970072 5.47748410970072 5.47748410970072 2.9140779775007323e-16 5.47748410970072 5.47748410970072 5.47748410970072 3.8774317075040437e-16" Properties=species:S:1:pos:R:3:momenta:R:3 pbc="T T T"
Si       7.68361896       7.48175522       8.87409092       1.19581005       1.16219792      -2.73945251
Si       3.84298623       4.38887507       5.56348517       1.50041858       0.83071823       6.13044232
Si       1.43599569       3.53425311       3.18406871      -4.85063518      -1.23617416      -1.68261675
Si       8.22063517       4.23864147       6.85110851      -3.95677289      -0.02879678      -1.40495793
Si       4.91166339       6.50807600       6.38343709       2.32573965      -1.52957331      -1.62877696
Si       7.56925628       6.81966110       3.76621486      -0.24436789       2.46052686      -0.63313194
Si      10.02305488       9.13900490       8.80182956      -0.23896808       1.75923682       4.37791055
Si       4.40167049       4.47287640       3.12769360      -0.89344553      -1.27900689       0.79340289
Si       7.35337225       6.30299785       6.05166132      -1.71610332      -5.35653296       1.07899460
Si       6.04879378       8.59279226       7.55581972       1.74401993       3.53246860      -1.41389479
Si       5.77442684       6.22945148       2.27228916       4.38046060       0.78862099       1.46351769
Si       1.51984906       4.84920479       6.20018752      -1.11915442      -3.39153821      -3.37222304
Si       4.22994346       5.97453122       8.58866925      -2.79049019      -3.94503371      -6.34596154
Si       3.56624786       8.16520920       5.23613371      -2.08330213       1.39569797      -1.29124851
Si       6.39493502       5.66601050       9.57877037       2.17196604       0.32901257       4.82448120
Si       9.38751885       7.71206155       6.99027510       4.57482478       4.50817606       1.84351471
16
Lattice="1.7439050659039483e-16 5.47748410970072 5.47748410970072 5.47748410970072 2.9140779775007323e-16 5.47748410970072 5.47748410970072 5.47748410970072 3.8774317075040437e-16" Properties=species:S:1:pos:R:3:momenta:R:3 pbc="T T T"
Si       5.85628442       7.93236411       7.69672487      -0.66889965       1.89186666       0.44851152
Si       2.80411264       5.19001254       2.58954035       1.18960083       3.82568778       1.33135029
Si       1.99833174       1.57156668       3.53080421       5.25108452       0.48106101       6.40241961
Si       7.57422553       4.11702609       6.06164274      -0.83346144      -5.29836465       2.68511178
Si       4.70800721       6.85547306       5.96426178      -1.87699754      -1.82096171      -6.82361529
Si       3.34841114       5.65564292       7.48537043      -0.56124214       5.16138134       0.53344192
Si       9.61002556       8.93311957       8.05423083       0.59622025      -0.14234485      -1.10113456
Si       5.17273871       4.65092154       2.73365352       2.11912371      -4.34693075      -0.92256774
Si       6.17314759       5.51087746       4.71266512      -4.49909409      -0.30048966       1.55061138
Si       8.09164410       7.39232199       7.20913427      -3.03070486      -4.28876701       3.59638489
Si       6.24460181       2.57331267       7.25300745      -2.37917543       2.14959785      -1.15880164
Si       1.07935413       0.30297312       1.13524421      -4.08184169      -1.06840951       0.86421629
Si       4.83285706       1.09716242       3.79932816      -3.61281704       2.42216645      -0.77011420
Si       4.12314890       8.88364405       4.92939823       4.39589611       3.82201066      -0.52437604
Si       0.86869135       4.89162165       4.43745892       6.52454546      -1.23448224      -5.48602946
Si       3.44593397       2.60742579       5.00081712       1.46776302      -1.25302139      -0.62540876
16
Lattice="1.7439050659039483e-16 5.47748410970072 5.47748410970072 5.47748410970072 2.9140779775007323e-16 5.47748410970072 5.47748410970072 5.47748410970072 3.8774317075040437e-16" Properties=species:S:1:pos:R:3:momenta:R:3 pbc="T T T"
Si       7.23068461       2.09298359       5.14223336       1.48264191       5.92838647       3.10393474
Si       3.88531954       7.17130515       3.46575229      -2.98217438       1.79901190       1.54662755
Si       1.63620532       3.06032606       1.87494551      -2.42616328      -0.09880020      -1.40844932
Si       8.47971973       5.11343012       7.09602674       1.25553821       3.10125314      -1.30209565
Si       5.27916147       7.33225263       7.58493378      -0.31825758       1.34961049       0.09510902
Si       1.95201795       0.71689203       2.58560634      -1.33768074       1.19458107      -4.35059463
Si       4.76708823       3.57978540       7.60599085       6.41941176      -4.27967898       2.53373232
Si       5.24541709       3.18041834       4.12713396       1.77719826      -0.40087966      -0.17783028
Si       6.29910529       5.60960643       6.14314919      -0.43922489      -2.50813556       0.93250785
Si       7.65280079       7.35516214       7.09633094      -2.85524997      -2.51815019       4.42354858
Si       5.61378046       5.52000995       3.90511535      -2.90915922       4.61613063       3.10269837
Si       1.59566387       5.31113994       5.87922258      -1.65037138      -4.92070438      -1.24887170
Si       4.15756984       5.56686300       8.71966344       2.82912776      -2.30597242      -0.69885563
Si       4.10142279       8.14276423       5.67242664       1.18655006      -4.71692541      -5.56058115
Si      10.20929609       4.90827417       5.45356771      -4.56937038      -0.25502312       2.09336337
Si       3.30374693       3.50425250       5.71866764       4.53718387       4.01529622      -3.08424344
16
Lattice="1.7439050659039483e-16 5.47748410970072 5.47748410970072 5.47748410970072 2.9140779775007323e-16 5.47748410970072 5.47748410970072 5.47748410970072 3.8774317075040437e-16" Properties=species:S:1:pos:R:3:momenta:R:3 pbc="T T T"
Si       7.26072196       9.77203730       8.26086249      -4.30985187       0.85121242       0.87410737
Si       3.92505538       6.93470173       4.70215834       1.13831360       4.60784046       2.13756352
Si       1.59409461       2.42783172       2.22247768       3.39285614       2.00308607       1.02361037
Si       7.65669195       5.53194244       5.11999423      -3.07186597       6.91888692       0.70259096
Si       5.89006432       7.08965021       5.95184704      -5.40381405       1.61494508      -5.33862074
Si       3.25834128       1.40924292       3.56963445       0.66152721      -2.74454241      -0.12828729
Si       3.96423767       3.88517345       7.34251186       7.72232729       1.18510437       1.60006597
Si       6.04287923       2.57534027       3.88664069       3.43366621      -8.94437573      -4.60391755
Si       7.39988590       4.71968580       8.15160205      -2.47365121       3.19705317      -1.58028110
Si       6.06553905       9.59989659       6.23773402       3.41262416      -4.60613748       1.30148265
Si       4.76759010       7.26200754       2.50019369      -2.92615093      -1.29041375      -4.03031395
Si       2.54411036       4.96778064       4.87526582       1.95372478      -5.23117183       3.10421665
Si       5.36271414       6.03553784       7.98561693       1.28658555       2.02775727      -4.60673030
Si       7.71979579       2.89746778       5.47436155      -1.24929512      -1.54953824       2.46137710
Si       9.38889438       5.35186294       6.78893524       2.27703555       0.08662995       2.65177950
Si       4.04586798       3.18279062       5.00093024      -5.84403131       1.87366372       4.43135684
16
Lattice="1.7439050659039483e-16 5.47748410970072 5.47748410970072 5.47748410970072 2.9140779775007323e-16 5.47748410970072 5.47748410970072 5.47748410970072 3.8774317075040437e-16" Properties=species:S:1:pos:R:3:momenta:R:3 pbc="T T T"
Si       7.75678351       7.19921991       8.62247922       1.86151493       0.53524260      -1.35039628
Si       4.19317417       5.62634795       5.91429538      -4.63653427      -2.31199124      -1.84530058
Si       1.48594144       2.79928581       1.61906963       4.88531723      -2.18562017      -3.07093278
Si       7.32004712       5.50764088       4.40615930      -1.88217360       4.73245889      -2.10478939
Si       6.74516747       8.45175011       5.86825823       2.99781812      -4.47487604       1.03506244
Si       2.20847744       2.26991379       3.83362249       4.84214100      -1.74992209       1.41021121
Si       9.41278905      10.26790434       8.99664675      -9.06719438       1.57292452      -4.94201250
Si       4.58235743       2.50374979       4.03193802       0.73667707      -0.69923441       1.70027537
Si       7.32093281       5.12816684       6.78587150       0.37808035       1.08921280       3.39816501
Si       8.68311810       9.14879356       7.04039055       1.36216472      -1.64227893       2.82627873
Si       5.11775503       4.81463755       3.86606321       4.11107306       5.03257178      -1.93308044
Si       2.98778117       7.55465183       5.42404430      -0.77924128      -3.36260107       3.75228333
Si       5.48007872       6.36278879       7.90630168       1.89015368       2.89453785       1.26357594
Si       4.60883347       9.32744038       5.57331529      -0.84120231       2.24356472      -4.47255578
Si       4.14551171       5.51931426       1.80067801      -5.41924323      -0.37729381      -1.06213812
Si       4.83773545       2.11631219       6.38163274      -0.43935107      -1.29669539       5.39535384
16
Lattice="1.7439050659039483e-16 5.47748410970072 5.47748410970072 5.47748410970072 2.9140779775007323e-16 5.47748410970072 5.47748410970072 5.47748410970072 3.8774317075040437e-16" Properties=species:S:1:pos:R:3:momenta:R:3 pbc="T T T"
Si       8.27728106       8.36384968       9.53135118       2.14655639       2.22156948       2.34233713
Si       4.10012419       4.86251987       5.24566425       0.47708657      -2.86850272      -1.80556959
Si       3.34542142       4.03557662       2.57405663       4.07744551       3.20021318      -0.09513963
Si       7.29629682       4.91609131       4.75467048       4.21552446       0.03609063       1.13012306
Si       7.35248172       7.75222104       7.45923076      -3.57656770       2.52996320      -4.55278739
Si       2.45154626       1.94375575       2.09031375      -0.48413847      -2.78385465      -0.63901226
Si       5.27797026       4.28883708       7.19598093       1.10899705      -2.69190182       0.48090626
Si       3.32425638       1.07540485       4.03896578      -2.92162102      -1.51682418      -4.11969287
Si       7.28070386       5.44051426       7.03094447      -5.77213710      -2.78056949       1.17526224
Si       2.69487364       2.98847184       5.31580296       1.01035710       3.26718092       1.27836713
Si       5.47948031       5.57160291       3.46328913      -2.26776101      -1.30052245       0.66097444
Si       2.43900581       6.49140159       5.44999847      -1.41143653       2.47224262       2.79635865
Si      10.02527637      10.00997899       9.35627874       0.17183177      -0.48363358      -3.27632297
Si       5.57504634       3.83921840       1.86508643       3.32464161       0.08646176       5.05774653
Si       0.89971504       4.63749566       5.30256405       0.95980300      -5.16708759      -3.26300434
Si       0.11203638       1.94852582       1.91908422      -1.05858163       5.77917470       2.82945359
16
Lattice="1.7439050659039483e-16 5.47748410970072 5.47748410970072 5.47748410970072 2.9140779775007323e-16 5.47748410970072 5.47748410970072 5.47748410970072 3.8774317075040437e-16" Properties=species:S:1:pos:R:3:momenta:R:3 pbc="T T T"
Si       7.82766719       7.62449762      10.29730476       2.60277826       2.03256484      -0.46648486
Si       5.08848239       4.88476541       4.81997926       1.33214203       0.66642842       6.07644498
Si       7.82657898       4.88464115       7.55873168      -1.46377087       0.84624361       2.40736951
Si       7.82630811      10.36383707       7.55817448       0.22740957       3.01306356       0.88611082
Si       5.08805424       7.62423246       7.55852430      -2.43573358      -2.51680819       3.89523376
Si       3.71838013       0.77809496       3.45062854      -1.61485913       3.20621582      -1.44996538
Si      10.56451494       7.62383208       7.55815656      -4.98745520      -4.24721178      -0.24404432
Si       6.45783864       3.51559608       3.45016908       2.22873530      -1.09364742      -6.30474670
Si       6.45756149       6.25431898       6.18927187      -1.08524786       5.93528261      -3.10182494
Si       7.82682386       7.62428131       4.82107256       2.38559099       1.31733886       1.54782498
Si       3.71873006       6.25316325       3.45082007       0.16958679       2.93496238       0.39530353
Si       0.97934284       0.77817197       0.71069306       2.57002426      -3.24594433       2.13199455
Si       0.97969990       3.51473790       3.45020396      -1.53927825      -3.40168112       1.91942037
Si       3.71911899       3.51642300       0.71104064      -3.40322302      -4.60278094      -2.42745793
Si      10.56578092      10.36312466      10.29606090       1.29776658      -1.90202392      -1.82979304
Si       3.71908551       3.51671600       6.18993460       3.71553413       1.05799760      -3.43538535
16
Lattice="1.7439050659039483e-16 5.47748410970072 5.47748410970072 5.47748410970072 2.9140779775007323e-16 5.47748410970072 5.47748410970072 5.47748410970072 3.8774317075040437e-16" Properties=species:S:1:pos:R:3:momenta:R:3 pbc="T T T"
Si       7.42855877       7.89962435       9.43839323       2.22835026      -2.20819150      -4.77846671
Si       3.87971212       4.14859445       3.39652642      -3.46861437      -2.96856235       1.95817251
Si       2.56158243       2.61169208       2.17879359       0.83488458      -7.80750121       3.13028219
Si       5.62654448       5.04886840       2.04838420       1.78987567       5.79574786       4.27550191
Si       5.32362666       7.04713586       5.12554062       5.91510422       2.32263786       2.14082494
Si       3.34368387       5.86978615       7.29998265      -3.52738394       1.59720468      -3.64322580
Si       7.78311799       9.22151200       7.51293961       0.45562107      -0.19592488       5.00327296
Si       5.20645767       2.71518099       4.65181997       2.85369721       0.96473333      -1.78336592
Si       5.82211518       5.41188160       6.87626564       1.58933745       0.59081069       1.46411267
Si       7.06933572       8.78603445       5.29006642       7.23795459       0.09187988       1.58328341
Si       5.90850170       7.25565286       2.78349103      -5.71692101       3.87986920      -4.01813378
Si       3.06870777       5.89589862       4.77990837       0.65091611       4.67472524      -2.47292245
Si       5.01937673       6.16954419       8.97468747      -2.84408830      -1.39956474      -6.28432316
Si       3.48885938       8.57964478       5.56298789      -1.42091905      -1.10486478       0.09764593
Si       5.15827230      10.17425847       5.26274235      -6.29556114      -0.80034121      -2.12912555
Si       4.72054721       3.24009288       6.88823685      -0.28225334      -3.43265808       5.45646686
16
Lattice="1.7439050659039483e-16 5.47748410970072 5.47748410970072 5.47748410970072 2.9140779775007323e-16 5.47748410970072 5.47748410970072 5.47748410970072 3.8774317075040437e-16" Properties=species:S:1:pos:R:3:momenta:R:3 pbc="T T T"
Si       6.71600029       3.45933784       3.62616277       6.45772505      -2.39567045       2.86490774
Si       8.03719547       5.15078651       7.92526641       0.40602027      -1.38614695       5.89940526
Si       2.86693649       2.91705780       1.66494684       0.52476851      -1.99843894       3.38074649
Si       6.50042881       5.74790467       4.32375578       3.00293484       1.60708632      -0.40450913
Si       6.56307945       8.61393915       5.31482126      -2.55332508      -2.84529151      -3.84579205
Si       2.97720106       1.37077444       3.44511830      -1.33401927       0.34011918      -4.20684925
Si       9.03245544       8.53823794       8.78248704       6.05467766       0.25265037       2.35318336
Si       6.57603140       2.04998097       5.51144240       1.67139353      -1.38020393      -3.59857588
Si       6.17433027       5.98193001       6.71747130      -2.20454691       1.06768531       1.58524654
Si       8.20527307       7.50735171       6.82763826      -2.38551680      -1.86920903       4.81567340
Si       4.32299290       6.30280385       3.66752668      -2.63976194       5.44880312       2.15735051
Si       3.64148268       4.81982714       5.49709553      -1.39127909       3.07206924       0.53894833
Si       4.19126947       5.13701134       7.77901683      -2.62908935      -1.47262115      -7.43009479
Si       5.31087526       8.19947290       7.23383962      -2.31803367       6.05831324       2.54017572
Si       1.53343656       5.34716415       4.61266941      -0.23083998      -0.17119360      -5.81503363
Si       4.23749547       2.49936938       5.14150788      -0.43110776      -4.32795122      -0.83478263
16
Lattice="1.7439050659039483e-16 5.47748410970072 5.47748410970072 5.47748410970072 2.9140779775007323e-16 5.47748410970072 5.47748410970072 5.47748410970072 3.8774317075040437e-16" Properties=species:S:1:pos:R:3:momenta:R:3 pbc="T T T"
Si       7.64839052       6.16537522       7.46071285      -1.76974490      -2.44090216      -0.67829856
Si       3.90727210       6.26775750       3.59241367      -8.22498690      -0.24066376      -3.58637490
Si       3.47390370       2.21922034       1.96492306       0.39776881      -3.33204764      -1.01873052
Si       6.68168275       4.21908689       4.88491030       0.25820902       0.21358708       2.71574583
Si       6.74062956       9.98043829       6.26274645       2.52755778       2.41345986       4.74746461
Si       1.81381088       1.86744782       3.60000135      -3.64456339      -2.67616412       0.13566267
Si       5.14021538       8.23156912       3.27797207       0.86858185       1.56915874      -0.89549733
Si       6.21596446       1.95394641       4.94413682       1.19810156      -0.05082684       8.62511333
Si       4.97672552       5.12872507       6.26857326      -0.00864843      -1.19629468       1.53999261
Si       7.86022581       7.90806309       5.88190854       3.43770121       2.29921315      -2.78564302
Si       6.10227666       5.33661758       2.96763593      -3.96197643       3.10978789      -2.39980039
Si       2.79424189       6.22573786       5.69260716       4.29186282      -0.98597318      -0.26435865
Si       5.36616542       6.33766194       8.43438332       2.52398024       1.04835759      -4.72091563
Si       8.59481659       4.34780787       6.20926909       2.84767374      -8.21456099      -2.57115887
Si      10.42344915      10.09520467      10.16385383      -0.48210811       3.10994400       0.89141922
Si       4.62419780       2.83577422       6.46471864      -0.25940887       5.37392507       0.26537957
16
Lattice="1.7439050659039483e-16 5.47748410970072 5.47748410970072 5.47748410970072 2.9140779775007323e-16 5.47748410970072 5.47748410970072 5.47748410970072 3.8774317075040437e-16" Properties=species:S:1:pos:R:3:momenta:R:3 pbc="T T T"
Si       3.41507364       7.39985820       4.75595045       7.87122587      -0.91047832      -3.14722811
Si       3.82807006       6.24198253       2.69842669       0.72299162       2.16511571      -0.85933840
Si       2.11108156       4.46824588       2.55356917      -5.12468616      -1.19214144      -2.66758057
Si       6.76366069       4.15747775       3.80369845      -3.77325342      -1.39124859      -5.74992547
Si       5.13076949       6.87337360       6.28737331       1.48328620      -2.63203530      -2.03081425
Si       2.10943212       2.19080428       3.27404885       4.81753194       1.35353081       0.85829982
Si       9.31009882       9.91969422       9.54332937      -0.38359082      -0.33390149      -0.25026647
Si       5.25987151       2.48265757       4.74528043       4.41772008      -0.10145524       2.33354620
Si       6.36269710       4.89836776       6.04426049      -4.94676147       2.57638767      -3.71976213
Si       6.98690277       8.15301070       5.53876144       3.00822233      -0.75107075      -1.55864650
Si       6.17151446       6.00662263       2.41519671       0.11830724      -0.51518868       1.92918623
Si       1.36443758       6.50037060       5.65541031      -0.60022538       0.83343211       3.09230781
Si       4.22809827       1.23706881       3.00504042      -0.77102378      -1.73967543       6.76202883
Si       8.52775679       5.85802608       5.76470379      -2.45903956      -0.77441857       2.79075493
Si       0.72912207       4.62558566       4.45696906      -4.44809416       5.24669692       5.37763051
Si       9.11041303       8.10728762       6.57377917       0.06738947      -1.83354941      -3.16019242
16
Lattice="1.7439050659039483e-16 5.47748410970072 5.47748410970072 5.47748410970072 2.9140779775007323e-16 5.47748410970072 5.47748410970072 5.47748410970072 3.8774317075040437e-16" Properties=species:S:1:pos:R:3:momenta:R:3 pbc="T T T"
Si       7.57551985       7.11258204       7.95231949      -3.57869858       0.47528281      -6.70543196
Si       4.00999732       6.83423086       4.18727979       1.96670031      -1.99147027      -2.40769238
Si       3.33592814       4.86111074       3.01898410       4.41589798      -0.43337385       7.27919554
Si       6.93507513       5.70102356       4.23163886      -0.00572103       2.07637719      -0.13530284
Si       3.66914720       7.58775569       6.40414835      -7.67740508      -1.47386945       0.93559187
Si       7.79587590       9.53434538       8.24828410       1.05054784       2.95224247       0.42833865
Si       4.54105043       4.49809723       8.94489966      -5.89172422       4.08896183      -0.50490478
Si       5.03389935       2.27024233       4.95257707      -0.74652688      -1.33841619      -2.71002722
Si       4.94762912       4.65813310       4.84465414       2.01568275       0.65801339      -1.51958609
Si       1.99642876       3.54528143       4.54027343       1.65905076      -1.35395399       1.32801737
Si       5.90224626       7.87371255       3.19919745      -1.77742411       0.56957327       0.24672185
Si       6.61339566      10.29283341       6.35715083       2.26296731       1.97042681       3.54933678
Si       5.20275893       6.71142180       8.24550416      -1.16781655      -3.71260905       2.59165919
Si       4.24828572       4.42871723       0.72371295      -0.51970540      -3.20276377       1.19516639
Si       1.27060266       1.70121548       1.07884446       4.79296522      -3.72079233      -6.10362735
Si       8.33115956       6.98721517       5.66381338       3.20120971       4.43637112       2.53254500
16
Lattice="1.7439050659039483e-16 5.47748410970072 5.47748410970072 5.47748410970072 2.9140779775007323e-16 5.47748410970072 5.47748410970072 5.47748410970072 3.8774317075040437e-16" Properties=species:S:1:pos:R:3:momenta:R:3 pbc="T T T"
Si       8.12685077       8.21066935       8.70494935       1.81612931       0.19135267      -4.33447523
Si       4.18377926       5.06141934       3.01249019       0.45080546       0.96577775       3.23788064
Si       4.62538266       2.72772131       2.63286759       4.82025946      -4.06761056      -2.41374406
Si       9.04135683      10.39111287       8.85141700       6.35560569       3.26825123      -4.30459688
Si       5.16330937       7.48724766       5.93644385      -0.28490460       5.78132195      -2.40347703
Si       2.64321702       1.65649840       3.31610097      -3.96171647      -0.14673377       2.29416332
Si       4.97511324       3.85267059       7.15737343      -6.28907702      -1.19326104       6.58420268
Si       6.23948768       6.96464080       9.18641055       1.18455509      -2.55216770      -1.47539116
Si       4.36550138       5.33625900       5.39631910       0.07798934      -4.95042614      -0.12284908
Si       7.50520266       7.77713954       5.52962619      -2.43947092      -3.15477852       4.14033839
Si       1.76253304       2.94201899       1.47144484       0.51711412      -2.39356097      -2.58896840
Si       2.07209334       4.67662606       5.46348907       1.95396003       0.49869094       7.01324285
Si       7.25449863       4.89555037       8.57850389      -2.63173514       1.21358333       0.75129051
Si       8.95915290       8.99860749      10.77732425       0.44903298      -1.46344493      -5.90414973
Si       0.60236314       1.04617860       0.53793744      -4.53610157       2.32506003       1.86548103
Si       9.36664217       7.09607353       6.99555273       2.51755425       5.67794573      -2.33894784
16
Lattice="1.7439050659039483e-16 5.47748410970072 5.47748410970072 5.47748410970072 2.9140779775007323e-16 5.47748410970072 5.47748410970072 5.47748410970072 3.8774317075040437e-16" Properties=species:S:1:pos:R:3:momenta:R:3 pbc="T T T"
Si       7.51469535       7.59517932       9.79160354       3.02680419       4.23959474       0.58806849
Si       5.54561534       4.68105011       3.28550781       0.53265608       0.89860742       1.31285351
Si       3.60842077       2.59029035       2.86533352       6.91875696      -2.34028895      -0.32793702
Si       7.68158281       9.39074598       8.27896911      -2.56168399       2.60102815      -4.39833971
Si       4.23857544       7.23525794       5.03856689       4.65637125       2.71979891       8.77692240
Si       3.82631913       5.62541773       8.41550432       0.81034985      -0.15618423       0.45661421
Si       1.41610957       3.31361085       2.45599067      -5.59524251      -1.46015086       1.92564712
Si       6.00502466       3.30241777       5.75845692       3.47415405       3.89485893      -3.65245236
Si       4.60404472       5.20054924       6.15520862       0.52869491      -0.93785795       1.36412115
Si       7.53786067       8.06015951       6.34214081      -6.70572926       1.58241554      -2.76081059
Si       5.37629325       7.02240007       3.02771942       0.21930370      -4.04748695      -2.29575373
Si       3.07202070       4.02084313       4.79221202      -2.49786792      -1.53951329       6.46132098
Si       6.80947281       5.30849709       9.33971951      -3.01900764      -2.93193398      -2.89114815
Si       5.02800658       8.84701414       6.50957068      -0.10104785      -2.83950801       0.51258391
Si      10.28732153       5.25099576       5.09207499       1.45928120      -5.19397568      -4.37956119
Si       9.81260489       7.15348901       6.39967160      -1.14579301       5.51059618      -0.69212902
16
Lattice="1.7439050659039483e-16 5.47748410970072 5.47748410970072 5.47748410970072 2.9140779775007323e-16 5.47748410970072 5.47748410970072 5.47748410970072 3.8774317075040437e-16" Properties=species:S:1:pos:R:3:momenta:R:3 pbc="T T T"
Si       5.91551814       7.58074396       8.84682510      -2.13572582      -1.30311646       3.79881231
Si       4.51383202       5.73275199       2.88733571      -4.52761014      -2.79028526      -3.34195151
Si       2.76360792       4.33430324       2.40602833      -1.26821734       3.05153609       0.75349678
Si       6.36610112       4.51632398       3.56635606      -0.86462153       5.55756820      -2.23896710
Si       4.29349344       7.09377148       4.83802429       4.13270345      -3.05461833       1.90127811
Si       2.55411651       0.65424354       2.91463701       0.17825486       1.31347669       2.34892795
Si      10.47315698       9.09085316       9.28333666       0.68849734      -2.42190842      -1.12174097
Si       6.33847702       2.84920870       5.61375403      -0.41107132       0.35602938      -3.63114674
Si       5.48848931       5.19845133       5.84224248       0.10255628      -0.80938378      -1.79562964
Si       8.12811407       8.04952407       6.15671953      -5.28516496       2.36982380       0.47595832
Si       1.77993557       2.91780031       3.98972372      -3.07349636      -1.11310397      -1.00230435
Si       3.80058552       4.28944974       7.27823356      -2.84674315      -3.03705996       4.12299725
Si       7.00246045       6.27844552       7.24497529       2.17089699       1.43187183      -2.20779437
Si       2.87529502       2.29816744       1.12969574       3.61419410      -1.18184238       4.65523309
Si       4.46859754       0.39844323       4.26166108       4.56209571       1.74151020      -2.90960029
Si      10.12470345       6.88298398       6.33373365       4.96345189      -0.11049763       0.19243116
16
Lattice="1.7439050659039483e-16 5.47748410970072 5.47748410970072 5.47748410970072 2.9140779775007323e-16 5.47748410970072 5.47748410970072 5.47748410970072 3.8774317075040437e-16" Properties=species:S:1:pos:R:3:momenta:R:3 pbc="T T T"
Si       8.86796744       8.29262004       9.64579232      -5.35666572      -4.25665141       2.38839674
Si       4.81265074       4.88694477       2.14907733      -4.88645183       1.20910301       2.09383721
Si       3.96460418       2.67179058       2.32258067      -2.10977510       0.17870885      -0.73785618
Si       8.13410294       5.01068073       3.57623067       3.39059057      -1.98658152      -0.82172455
Si       5.75530918       8.06884368       4.12718527       2.56519934      -1.95033168      -2.18516932
Si       3.65281604       1.52809781       4.40366041       1.81025462      -3.60650003      -3.18715487
Si       5.83979304       2.84847278       7.20772165       1.23858582       8.33723053      -0.05314125
Si       5.98811872       6.50015071       9.93293931      -1.74823424       1.94517527      -0.13688388
Si       5.15903462       4.90654743       6.27961345      -1.43678879      -0.89831857       5.36127752
Si       7.61204172       7.80987412       6.11740250       3.59619145       0.96029008      -0.63925595
Si       5.92026231       5.58787208       4.12780142      -0.29804520       0.35921922      -4.64061850
Si       2.84003152       5.19762491       6.68460970      -0.61290404       1.93953424       0.98956493
Si       5.93577006       6.75738719       7.52603362      -0.45181150       3.21923277       0.31658427
Si       2.32811254       2.00532734       0.66350082      -3.03716452       0.58268554       1.37624214
Si       6.27079226       9.95975108       5.71200084       3.78012082      -3.94104228       0.19794097
Si       9.28256090       7.08844865       7.59461634       3.55689832      -2.09175401      -0.32203927
16
Lattice="1.7439050659039483e-16 5.47748410970072 5.47748410970072 5.47748410970072 2.9140779775007323e-16 5.47748410970072 5.47748410970072 5.47748410970072 3.8774317075040437e-16" Properties=species:S:1:pos:R:3:momenta:R:3 pbc="T T T"
Si       7.70134651       6.93039356      10.00093072       1.16894487       3.62030737       1.34444382
Si       4.39643140       5.45826628       2.89345241       1.73265746       3.65541615       4.91361583
Si       2.83361211       3.81352893       2.25042902       2.85755288      -4.82731811       0.44894594
Si       9.01567438       5.30082741       4.03928520       2.51441037       0.83047810      -2.74224017
Si       5.49068892       8.16918131       5.83099224      -3.11336814       4.54412481       1.25684153
Si       8.26549931       9.83564691       7.43921626       2.62964231      -2.20864351       4.36889041
Si       5.49276411       7.67275633       2.22317162      -2.18709000      -4.12275543      -0.96970460
Si       3.53310879       2.78193407       4.35359134      -5.68185299      -1.93746310      -1.66999551
Si       5.73195157       5.86332749       6.08787299      -2.05654530       0.83318038       2.06183276
Si       8.43599156       7.42043446       7.75813921       0.77534782      -3.86292182      -1.56634011
Si       6.95937829       6.92642923       4.22287812      -1.00186723      -0.17704412      -4.75174805
Si       3.64023193       5.08696982       5.29824352       0.17547482       2.14014687      -3.59414996
Si       6.07154411       4.54680833       8.03603358       1.57135853       0.53494366      -3.30563058
Si       8.77092861       3.34656138       5.44349805       2.36574182      -2.32522482      -1.61922867
Si       6.03446601       4.73874771       1.34044959      -0.59894272      -0.07700050       3.43666464
Si       5.46783469       1.22862067       5.37509836      -1.15146450       3.37977406       2.38780271
16
Lattice="1.7439050659039483e-16 5.47748410970072 5.47748410970072 5.47748410970072 2.9140779775007323e-16 5.47748410970072 5.47748410970072 5.47748410970072 3.8774317075040437e-16" Properties=species:S:1:pos:R:3:momenta:R:3 pbc="T T T"
Si       6.57088165       6.76824698       8.00860071      -0.14498599       1.50859439      -0.36320998
Si       2.61344493       5.63955670       3.93424014       0.28129507       1.55617995       4.09996409
Si       3.57220073       3.76089471       2.87406078       3.74925682      -2.83619217      -3.78703739
Si       7.34372292       4.58368180       4.27274635      -7.11606652      -0.55615470       0.12565090
Si       5.04801876       8.99845190       4.64265468      -2.44429814      -0.23529922       0.25821755
Si       3.08533247       5.37426577       7.93244621      -1.17132191       3.98914677      -3.04581059
Si       4.61209850       6.79597541       3.95318561       0.10853976      -0.68557295       4.97854646
Si       5.62991131       3.02395554       3.86274116       1.37146361       2.46980744       1.33260027
Si       5.91256284       5.83465603       5.62885809       6.02398091      -0.97103418       2.83728425
Si       7.04491596       8.02212405       5.76255342       0.61859822      -1.18632109       6.18150000
Si       2.28674669       1.89819848       3.49362915      -4.80998233       0.21552872      -3.11613307
Si       1.71000953       4.95965296       6.05747804      -7.29794938       2.93653145      -1.73207607
Si       5.31593887       4.71701555       7.87593508       0.07321532      -4.49710806      -5.71703455
Si       3.09695218       3.65643070       0.56761363       3.93671943      -3.86237637      -2.20097645
Si       5.99606598       6.56831699       2.01687874       5.69234476       1.47470438      -3.34224193
Si       6.09271255       3.04152622       6.23217631       1.12919038       0.67956565       3.49075652
16
Lattice="1.7439050659039483e-16 5.47748410970072 5.47748410970072 5.47748410970072 2.9140779775007323e-16 5.47748410970072 5.47748410970072 5.47748410970072 3.8774317075040437e-16" Properties=species:S:1:pos:R:3:momenta:R:3 pbc="T T T"
Si       6.32893894       7.05478874       8.13539590       0.29482925       5.04259872      -2.54844900
Si       2.29617744       6.54234153       4.44491957      -2.93186000       5.08080771       1.22747026
Si       2.65855584       2.71236384       3.70676034      -3.65879393      -0.70653353      -2.30785819
Si       2.52118557       3.62019444       1.56073822       0.77148539      -2.19732195       1.04030196
Si       4.33383597       7.67441140       4.02285049       0.74582921       2.36010813      -1.68481196
Si       7.29068016       5.53072934       2.55849059      -5.26644615      -2.88731308       7.79797979
Si      10.10181067       7.74403541       7.12778670       3.82011211      -3.88308806      -3.48316877
Si       4.12552424       0.88012283       3.29546315       2.24036464      -1.22065364      -3.70429058
Si       6.65763451       5.48199993       6.43572080      -1.17245808      -2.70922386       2.21129600
Si       6.50227480       9.11578917       6.92631546      -2.82938847      -6.32711206      -6.33639014
Si       6.40950143       6.63434790       4.39774353       0.18510743      -2.45028422       2.23454835
Si       2.68488228       4.37287830       5.30194059       2.59083527      -2.70782186       2.54483885
Si       4.43991063       4.58847885       6.85048824       1.44508846       4.35491820      -1.91479499
Si       4.46917280       9.33866138       5.75773267       0.35630823       2.80680708       1.01324027
Si       1.33561785       1.73129370       0.98657314       4.27343073       5.27389688       3.58304268
Si       9.25329686       6.09799713       5.60687873      -0.86444410       0.17021555       0.32704544
16
Lattice="1.7439050659039483e-16 5.47748410970072 5.47748410970072 5.47748410970072 2.9140779775007323e-16 5.47748410970072 5.47748410970072 5.47748410970072 3.8774317075040437e-16" Properties=species:S:1:pos:R:3:momenta:R:3 pbc="T T T"
Si       6.52343171       7.09547426       8.90663217      10.43397692      -1.89191293       2.40732299
Si       2.51173762       5.58382458       4.51321041       7.60027598      -0.99442038      -0.70551199
Si       3.44652622       3.94117630       1.56322878      -1.92852565      -5.55712058       4.71933883
Si       7.83262738       8.67433584      10.03433652      -4.27422998       1.55252862       1.85294112
Si       5.95417903       6.61812895       5.39929297      -2.26658811      -0.22546350       6.45848510
Si       2.64413127       0.58248584       2.22628205       2.97694692       2.96436466       0.85214770
Si       5.32309167       3.35890768       7.58730157      -0.68050406       2.18909443      -6.50278382
Si       3.27572303       3.46892432       3.91530047      -3.29837744      -1.75476643      -0.12585731
Si       6.77421461       4.52729909       6.18221077       0.26825903      -0.48391833       4.45606741
Si       7.23125035       7.94130049       6.79892086      -0.54200368       4.97471918      -0.49455630
Si       1.35847149       2.09512802       3.44028177      -2.44070613      -1.93944609      -4.46545780
Si       6.77927766      10.22746846       6.33571092       0.12284630      -1.69244932      -0.72166856
Si       9.41845254      10.11426537       9.04255659      -1.85354498       2.32321509       1.15820249
Si       3.71703674       7.17193615       5.91099992      -6.49857234       2.53430688      -1.59765974
Si      10.12273623       5.46690408       5.70388063       0.76142312      -1.86708565      -4.13652166
Si       3.97359654       2.25287445       5.98810405       1.61932410      -0.13164566      -3.15448846
16
Lattice="1.7439050659039483e-16 5.47748410970072 5.47748410970072 5.47748410970072 2.9140779775007323e-16 5.47748410970072 5.47748410970072 5.47748410970072 3.8774317075040437e-16" Properties=species:S:1:pos:R:3:momenta:R:3 pbc="T T T"
Si       6.60766156       7.67014468       7.63096078       0.16998749       0.97127039      -0.56511265
Si       7.34721192       5.54244747       8.67669101      -1.65895403      -1.58162644       0.57395777
Si       3.31339630       4.06922760       1.98572578       1.98199596      -4.57362161      -4.68253685
Si       6.37082210       6.43754668       4.27341542       0.05602399      -1.53729339      -3.21877597
Si       5.19408884       8.04891228       5.55674630      -3.25875052       1.27532709      -0.61501106
Si       4.03088149       0.96840514       3.09609760       4.39481093       5.32803368       3.51698942
Si       5.01833528       3.44042243       7.29417977       7.27440258      -4.11322963       1.28660477
Si       4.91455681       3.12354150       3.45797700      -3.22930379       2.76917749       0.18184431
Si       5.29721901       4.58885352       5.20187651       0.77011701       4.55662724       1.86472633
Si       8.29479315       8.81988361       6.49286303       1.29336436       1.89270663       0.18146921
Si       0.62633273       1.36459965       1.91359271      -4.62910513       2.76744871       3.75589956
Si       3.05647166       5.38017392       5.23988508      -2.93177322       1.29874385      -3.30204027
Si       5.30278701       4.57852256       9.34165164       3.60801058      -6.88769844       0.83883962
Si       2.89203931       1.76116613       1.19613359      -2.18784122      -2.63127422       4.93829847
Si      10.10328998       5.44792532       6.10364678       0.79907242      -2.14189666      -3.58489254
Si       8.51659694       6.92369320       5.13183922      -2.45205740       2.60730533      -1.17026011
16
Lattice="1.7439050659039483e-16 5.47748410970072 5.47748410970072 5.47748410970072 2.9140779775007323e-16 5.47748410970072 5.47748410970072 5.47748410970072 3.8774317075040437e-16" Properties=species:S:1:pos:R:3:momenta:R:3 pbc="T T T"
Si       7.60775737       9.33087749       9.17449343       0.76611089      -4.26808782      -2.32341124
Si       7.30234178       5.66887659       8.39580268       1.40858073       3.43901027      -1.36102935
Si       2.57506359       3.52895735       2.21773218       1.71481529      -3.08029611       6.57111470
Si       7.61706399       6.15289279       4.40227155       4.88310119      -1.69473590       1.84768697
Si       3.44731661       7.55574326       4.73340315       0.19482442      -0.20245278      -2.82236760
Si       3.85107484       2.13107992       3.58165660      -4.69472380      -0.48716170       0.93590676
Si       5.98586646       2.54197815       7.33323151       7.03152756       4.40898808      -0.57299446
Si       5.27144620       3.99435331       4.26299634      -3.02972878      -0.81541820       2.96454493
Si       4.75302056       4.36522996       6.55467745       3.53793952       0.35995736       0.77310012
Si       7.99032169       9.23039597       6.79576397      -0.95958706       1.73319665      -0.83816978
Si       5.31949839       6.42357998       3.58699536      -2.63374921       1.90684438       0.27066462
Si       1.83273184       5.77276911       5.34384725      -4.64618492      -2.93939548       1.36882107
Si       5.25941970       6.49267767       7.51786698      -5.09730225       1.22615181       1.00826144
Si       4.62403179       8.67991307       6.48554347       2.10527311      -3.60149784       3.79731240
Si       5.13476691       5.91249009       1.13284401       0.41254777       2.10632556      -5.55369070
Si       8.31476238       6.81610329       6.55164039      -0.99344448       1.90857172      -6.06574988
16
Lattice="1.7439050659039483e-16 5.47748410970072 5.47748410970072 5.47748410970072 2.9140779775007323e-16 5.47748410970072 5.47748410970072 5.47748410970072 3.8774317075040437e-16" Properties=species:S:1:pos:R:3:momenta:R:3 pbc="T T T"
Si       8.38405265       7.65979138       8.75625433      -0.46188271      -2.35528487      -3.30048728
Si       3.37663927       5.24817291       3.10218939       0.67999319       3.68658335       2.81369715
Si       2.10549492       3.62025451       1.95817530       3.88993505       3.10507833      -0.18427530
Si       5.45196928       4.65491527       4.15793416       3.99943847       0.47908800      -5.68397294
Si       4.70443906       8.39759947       4.62591867       0.48258415       2.92216154       1.37631277
Si       2.63680529       2.16374727       3.77544444       1.60846594      -6.26471643      -0.77705133
Si       3.97596470       2.98264425       6.81459759      -2.40912655       1.68896057      -3.17076195
Si       6.27334778       8.42760049       8.10470451      -3.19884971       4.51290790       4.52636049
Si       5.59166623       4.63372299       6.59704872      -0.04302346      -2.28612941       2.27452355
Si       7.33671737       8.85554431       5.89562181      -2.10989827       0.78245159      -2.43156667
Si       6.00375803       6.77813745       3.34506280      -0.38628904      -5.36210559      -0.43381174
Si       2.05279223       5.61564377       5.12134183      -1.86942326       0.02519865       0.83149444
Si       4.78632749       6.55433420       8.03766358       1.46103034      -4.08977647       2.92476959
Si       3.29114932       7.39375076       6.26109278       0.11939195       0.71486517      -1.57367570
Si       5.19445612       5.32709029      10.16469128      -0.55531345       5.40841186      -0.43088190
Si      10.24342027       6.28496867       6.83050925      -1.20703262      -2.96769416       3.23932682
16
Lattice="1.7439050659039483e-16 5.47748410970072 5.47748410970072 5.47748410970072 2.9140779775007323e-16 5.47748410970072 5.47748410970072 5.47748410970072 3.8774317075040437e-16" Properties=species:S:1:pos:R:3:momenta:R:3 pbc="T T T"
Si       7.48145430       9.20876278       9.13785571      -1.16236046       0.85507578      -4.12625399
Si       3.01702442       4.83882717       5.18612071      -6.00743647      -1.82496448       1.60089393
Si       7.72085402       4.52710648       7.13596879       2.15564974      -1.43046883      -2.42896525
Si       6.53717146       3.05596418       5.73634823       0.33173730      -5.81917014       2.22504355
Si       5.24538856       8.23749405       4.97002424      -1.28976527      -0.55761522       0.16190429
Si       2.95256701       1.69371597       2.54503705      -0.41654509      -0.56966875      -0.40394432
Si       8.75154833       7.66833057       7.88985327      -3.89572912       1.87261824       4.61336548
Si       5.81232592       4.93610347       2.57891365       3.72780362       0.85924454       2.02739765
Si       4.50974692       3.84692089       6.73072140      -0.42225706       0.62715693       1.76836391
Si       2.06658092       2.73380316       4.48895300       2.14097034       1.22366722      -2.96401657
Si       4.40130205       6.28973853       3.91122843       1.88624740       0.96118943      -1.17126041
Si       1.43762998       0.74921552       0.83336275      -0.50918339       3.39917713      -0.88496607
Si       3.95274933       5.13921679       8.63575359      -0.05812975      -1.89163010       1.44338315
Si       4.35551428       3.36564456       1.58144549       3.44928939       2.02890541      -2.46627440
Si      10.32694180       5.38650790       5.26770256       3.49957296      -0.79383917       1.34991375
Si       8.31768479       6.48811366       5.96399335      -3.42986415       1.06032202      -0.74458469
16
Lattice="1.7439050659039483e-16 5.47748410970072 5.47748410970072 5.47748410970072 2.9140779775007323e-16 5.47748410970072 5.47748410970072 5.47748410970072 3.8774317075040437e-16" Properties=species:S:1:pos:R:3:momenta:R:3 pbc="T T T"
Si       7.71982491       9.72784513       8.42399676      -1.71166669      -5.47363082       0.64646833
Si       4.62516994       4.67737498       4.22142339      -3.01638017       2.02356516       0.57556251
Si       3.41378001       6.20030224       2.96366562      -3.01153372       0.88510995      -0.26892526
Si       7.71352783       4.01729452       5.34852072       3.13607211      -2.59469988       0.96357289
Si       0.27114810       3.79869930       4.03299551       1.69950055      -1.57789838       4.77424786
Si       2.77871079       1.00966675       2.34848292      -0.47331123      -4.63214496      -1.29172846
Si       9.58123504       8.39627475       8.03016161       0.60596622       1.04210089       0.40487026
Si       5.54073618       3.56466833       2.34538219       5.06343210       3.91078687      -2.92527220
Si       6.18010531       5.83083063       5.56402483      -0.64873182      -0.76778462      -0.07239139
Si       3.50416782       3.11675827       5.56780047       0.45767754       2.01166163       1.86235378
Si       7.30119281       7.53218515       4.32118337      -5.11314027       2.58162571      -3.27879729
Si       1.57538699       1.74842244       0.37367490       1.14672420       4.82849117       7.02538790
Si       5.20445911       6.73408704       7.58500177       0.13705548      -1.43819312      -2.65946869
Si       4.48578677       4.50713845       0.45628326      -2.73759775       3.28310253       0.45448134
Si       6.71995875       5.95279323       9.23016541       5.12760545       2.61001989      -2.22477189
Si      10.27129372       6.82860858       6.30303537      -0.66167199      -6.69211202      -3.98558968
16
Lattice="1.7439050659039483e-16 5.47748410970072 5.47748410970072 5.47748410970072 2.9140779775007323e-16 5.47748410970072 5.47748410970072 5.47748410970072 3.8774317075040437e-16" Properties=species:S:1:pos:R:3:momenta:R:3 pbc="T T T"
Si       7.47270038       8.66281422       8.64409119       1.45567150      -2.15726334       0.18921165
Si       4.51040179       6.14853734       4.48536338      -0.28953439      -2.39362222      -1.34612695
Si       3.62169949       4.29763589       3.26369985       1.86115655      -3.14190060      -1.44524171
Si       7.68290670       5.71349896       5.98046706       0.60102120       4.46536246       1.72665075
Si       1.77268227       3.40827583       4.48643148       1.12622792       1.67998304       0.23514161
Si       7.97120605       5.42696930       3.65828680      -4.22145614      -2.01386184       0.38152418
Si       2.92651733       7.73167064       5.15184729       3.02951001       1.38679848       4.10699548
Si       5.23185803       2.68874199       3.66190020      -2.30368823       1.17116296       0.31360583
Si       5.44120536       5.21682562       6.47236652      -7.32468432       0.54418345       1.25085434
Si       8.17858811       7.95528915       6.47392966       1.86545245       2.60531442       0.17160549
Si       6.36096540       7.03602782       3.26288685       0.85490465       0.84599316       0.04126749
Si       1.07788824       1.36345117       0.89719578      -2.07089285      -0.98854034       2.45773958
Si       4.73542276       5.92470683       8.64322547      -0.27334458       3.33947537       2.23635716
Si       3.81525545       4.10326453       0.89709207       2.87923741      -0.10755620      -1.06007633
Si       0.18798395       4.99177218       5.15185135       2.21702042      -1.72672571      -3.32828290
Si       4.94423456       2.97346832       5.98516317       0.59339841      -3.50880310      -5.93122567
16
Lattice="1.7439050659039483e-16 5.47748410970072 5.47748410970072 5.47748410970072 2.9140779775007323e-16 5.47748410970072 5.47748410970072 5.47748410970072 3.8774317075040437e-16" Properties=species:S:1:pos:R:3:momenta:R:3 pbc="T T T"
Si       7.82851241       7.61346009       9.33230602      -3.09018033      -2.90283704      -2.87357237
Si       4.25101014       6.43064698       4.62350768       0.73468513       3.04487462       0.49571936
Si       3.72450016       3.05769480       3.16325695       1.23053324      -2.98454774       0.46542682
Si       8.09820749       5.84057365       5.02957664      -4.71313164      -1.39891813       2.46154578
Si       5.54378731       8.37913236       5.11241472      -1.82734055      -1.17482576       4.06340170
Si       7.18768392       5.42908981       2.87659049      -0.64479739       2.44511509      -1.73056973
Si       8.39138507       9.08014765       7.50867350       3.88096588       3.15909087       2.13601596
Si       6.22535864       2.86738530       5.50365401       3.96555810      -1.13279092      -1.93081441
Si       4.78566670       4.69835766       6.37637424      -2.46424427      -1.82767314       0.78774996
Si       7.09853012       7.35364168       6.52405268       5.50936402      -0.07028275      -5.75906733
Si       4.87755408       5.06392696       2.77531287      -2.73995580      -5.58608724       2.28920739
Si       1.98716253       2.06751705       1.85189886       1.46423389       2.59566937      -0.09218092
Si       6.11791464       5.83935430       8.12755582       1.76415167       0.92204615       0.80936912
Si       4.49033092       4.87467355       0.46440164      -2.63840609       0.15090994      -0.40040339
Si       1.47135156       3.74751047       3.43187640      -0.14137188       1.18319731       0.39845399
Si       4.80752841       1.29983746       4.41434558      -0.29006399       3.57705936      -1.12028192
16
Lattice="1.7439050659039483e-16 5.47748410970072 5.47748410970072 5.47748410970072 2.9140779775007323e-16 5.47748410970072 5.47748410970072 5.47748410970072 3.8774317075040437e-16" Properties=species:S:1:pos:R:3:momenta:R:3 pbc="T T T"
Si       8.30732652       8.19001908       9.89541266       0.01777733      -3.07723737       1.51338953
Si       5.33937231       4.79453828       4.89662222      -0.21303115      -1.43342316       0.45225998
Si       2.70733686       3.14419438       2.77795409      -4.23658536      -2.31134539      -1.64690355
Si       7.68337958       5.02617087       4.72325358       1.26588945       1.48080762      -0.15117855
Si       4.22781428       8.12728764       6.32649474       0.78972811       6.68804828       0.40461097
Si       7.89954178      10.47494980       7.80289952      -6.17010106       2.77318553       1.31767181
Si       9.28528952       7.93091147       7.77320150       0.45188908      -0.82533771      -2.57299878
Si       4.97770548       2.79645275       3.72858094       1.34831896       0.82668361       0.19117656
Si       4.65285786       4.57697457       7.16166470      -1.06538282      -0.58827375       1.88748092
Si       6.36134722       8.62942382       7.22985568       7.64656176      -2.07589076       0.09307609
Si       5.06243086       6.10028011       2.92566312       0.12899874       1.31600068      -3.86721003
Si       1.37131244       1.45356887       1.64947010       0.34625311       2.14716648       6.18024507
Si       6.66253644       5.11038831       8.39997562       2.09923127      -5.74475560      -1.11264690
Si       3.80047616       4.89888813       1.34805867      -4.26722019       3.59891828       1.63423458
Si       6.47580010       6.72804340      10.20205171       3.37558596      -2.27929489       0.04025131
Si       7.54944079       6.61582651       6.70709161      -1.51791318      -0.49525185      -4.36345901
16
Lattice="1.7439050659039483e-16 5.47748410970072 5.47748410970072 5.47748410970072 2.9140779775007323e-16 5.47748410970072 5.47748410970072 5.47748410970072 3.8774317075040437e-16" Properties=species:S:1:pos:R:3:momenta:R:3 pbc="T T T"
Si       7.96274270       8.20078201       8.34691156       2.27786017      -2.58352384       1.96662385
Si       3.81232563       3.73361667       5.31288186       5.86681543      -3.66339863      -0.79592160
Si       3.15901560       3.12168361       2.33134253      -1.25824112       4.74974266      -1.01606121
Si       7.05218085       4.55016352       4.05456519      -1.73042336       0.61813235      -6.91304758
Si       5.76645183       8.74282511       4.89912675      -5.67471959      -1.35890401      -0.15364389
Si       1.71490077       1.67923651       1.14247892      -2.83837716      -0.78310727       0.52806711
Si       4.40260779       7.20467900       3.80035904      -0.24551033      -2.84348002      -2.95579550
Si       4.40235769       1.90707042       3.88022521       1.92437565       2.03614811       1.19573944
Si       6.00718708       3.67864138       6.07515031       3.04062472      -0.64029181       2.47312529
Si       7.58919038       7.83177264       6.08885865      -1.81596043       1.94980519       1.85286636
Si       5.78532279       5.82117096       2.48758939      -0.11899137      -1.57716111      -0.94035551
Si       2.93428150       5.91140882       5.07508696      -0.62584519       3.57942462      -1.60499133
Si       6.63911767       4.30926775       8.35743010       1.14883526       0.66454041       3.13768000
Si       4.49256915       4.53037932       0.98686097      -0.09109906      -5.03177755      -1.37080715
Si       6.58017927       6.50342126       9.12191172       0.12305974      -0.53736669       1.62476574
Si       8.58605338       5.91683081       5.15501895       0.01759664       5.42121760       2.97175598
