16
Lattice="1.7439050659039483e-16 5.47748410970072 5.47748410970072 5.47748410970072 2.9140779775007323e-16 5.47748410970072 5.47748410970072 5.47748410970072 3.8774317075040437e-16" Properties=species:S:1:pos:R:3 pbc="T T T"
Si       6.37807353       7.77795691       3.97705345
Si       0.42127152       4.59588900       4.33383167
Si       3.92973149       2.55884953       1.72425481
Si       8.09636395       4.10171658       5.84981382
Si       8.85725612       5.66224340       7.49528025
Si       5.07263300       4.30417912       2.90857155
Si       4.33550413       2.82628241       5.84844160
Si       6.79891163       6.83189180      10.17000752
Si       5.62884086       6.79705804       6.04988401
Si       7.17980272       7.20716518       7.87542359
Si       8.30396841       9.25309652       7.43601952
Si       5.43621282       6.90955328       1.93060666
Si       9.10485922      10.39444680       9.36962228
Si       3.22149514       1.79352453       3.89650443
Si       5.78840423       4.53400265       5.20542940
Si       6.52472280      10.46633146       6.57380271
16
Lattice="1.7439050659039483e-16 5.47748410970072 5.47748410970072 5.47748410970072 2.9140779775007323e-16 5.47748410970072 5.47748410970072 5.47748410970072 3.8774317075040437e-16" Properties=species:S:1:pos:R:3:momenta:R:3 pbc="T T T"
Si       7.24114743       6.15239556       5.04801316       1.83455056      -5.11379910      -1.34430411
Si       4.95329332       4.97443418       0.16491891       3.07102544       1.61698729       2.21176033
Si       4.41945811       6.46230199       7.75304495       9.80558367       3.92696348      -2.56947285
Si       8.28267490       4.38079893       6.41914924      -1.21135889       3.27847435      -2.88015047
Si       3.15540687       4.47383351       3.32004571      -3.69367821      -1.60206593       2.75163315
Si       4.95491190       5.86484060       4.16711141       5.57473677       0.31730251       2.42786042
Si       5.08365186       1.85439227       5.80436849      -6.08530659      -1.39697338      -1.03707860
Si       7.31523756       2.46347765       5.26650675      -0.03757443       2.30599557      -1.84771256
Si       6.45943296       7.36249444       6.90560216      -2.98104423      -1.95613613       4.00000395
Si       7.88563239       6.84594341       8.65986166       0.27740872      -0.93801957      -3.59337954
Si       7.42774020       4.29689364       3.52256585      -4.99053223      -7.90921989       6.65116299
Si      10.03726356       7.66265924       8.10453186      -2.08949978      -3.57246126       0.45706861
Si       9.84372985       9.87565340       8.91057988      -2.26008512       1.49712312       4.25321848
Si       3.42763375       2.19211137       4.09846395       3.32290425       6.43853408      -3.27810452
Si       3.11848841       5.96717564       5.85288726      -0.75059334      -2.10088819       1.47018626
Si       6.94983259       9.70729726       6.64689602       0.21346340       5.20818306      -7.67269153
16
Lattice="1.7439050659039483e-16 5.47748410970072 5.47748410970072 5.47748410970072 2.9140779775007323e-16 5.47748410970072 5.47748410970072 5.47748410970072 3.8774317075040437e-16" Properties=species:S:1:pos:R:3:momenta:R:3 pbc="T T T"
Si       7.18291084       8.25847034       5.05727794      -1.78220337      -1.29562365      -0.67900639
Si       5.32480536       6.52103374       8.95389255       3.78139292      -3.88796409      -4.83483592
Si       4.28833103       2.94773831       2.50385821      -5.64114496      -4.06934286      -4.10872498
Si       7.80832999       6.00088633       5.38684077      -0.92293642       6.75452449       0.26675502
Si       8.47104428       6.71997326       8.78531067       4.92354728      -4.26141077      -0.71617391
Si       4.61215799       4.89793025       3.70419105      -1.23812913      -2.78505432       4.24149889
Si       4.92680530       1.88138077       5.68427569      -3.58668190       1.65286953      -0.36860063
Si       3.27938177       6.46165359       5.61733715       1.44242286       0.64530782      -0.44761790
Si       4.88647327       8.32882526       5.73247869       0.66443854      -6.23117249      -2.56629590
Si       6.95558207       5.45583150       7.56530063      -1.73474288       2.47953594       2.32964036
Si       8.46718904       9.05179831       8.20910352      -3.04764520       4.93860449      -2.79947725
Si       1.36217157       1.38348457       1.50598048      -3.90904981       0.03416868       4.19408142
Si       9.60864971      10.18222851       9.94323884       5.65956510      -1.33561213       4.58047443
Si       1.97330335       3.24380939       2.76377102       0.97313390       2.85085612       1.32889268
Si       3.60656618       3.94662845       5.93725936       2.51978951      -1.66694313       0.54396382
Si       6.84686571       5.25503051       3.29443069       1.89824356       6.17725637      -0.96457373
16
Lattice="1.7439050659039483e-16 5.47748410970072 5.47748410970072 5.47748410970072 2.9140779775007323e-16 5.47748410970072 5.47748410970072 5.47748410970072 3.8774317075040437e-16" Properties=species:S:1:pos:R:3:momenta:R:3 pbc="T T T"
Si       5.39369535       7.62317055       3.92420096      -0.11012272       1.84423669      -4.69530230
Si       5.36918646       5.96700216      10.32540336      -2.35648216      -2.81669144      -3.85096893
Si       3.67956224       3.65362446       3.13985393      -2.74598107       1.54539763       0.83795260
Si       7.86689049       3.76396620       6.58005656       4.84501632      -3.30470509       1.24962590
Si       8.08667270       5.98754917       7.44300932      -0.30885337       5.38449809       0.16651128
Si       5.91077906       9.07010704       7.65323085      -9.06315718       0.43155734      -0.25981852
Si       9.30036458       7.37397299       5.98579046       2.73705674      -4.58106946      -0.09964832
Si       2.10744007       6.00561715       5.72231296       4.02082288       1.62338575       0.54558091
Si       4.71269589       9.24607562       5.53035516       1.90125970      -0.59612636      -2.62296877
Si       6.03164565       6.79152106       8.17789764      -5.43225689      -0.48024352      12.14775624
Si       7.55918672       9.08045434       5.80127222       0.69214451       2.87900606       1.92037835
Si       5.46659819       3.15416558       7.23413425       2.71782831       0.39487852      -3.47078028
Si       4.45130378       5.11667998       7.98525819       3.21336127       4.42478824      -0.13655794
Si       2.29186994       1.90054908       4.03015384      -0.38681870       4.39757083       0.90836501
Si       3.76736691       5.87140966       4.03399824      -1.33371412      -8.31832898      -4.55086269
Si       7.60530943       5.40832217       2.55510346       1.60989650      -2.82815429       1.91073747
16
Lattice="1.7439050659039483e-16 5.47748410970072 5.47748410970072 5.47748410970072 2.9140779775007323e-16 5.47748410970072 5.47748410970072 5.47748410970072 3.8774317075040437e-16" Properties=species:S:1:pos:R:3:momenta:R:3 pbc="T T T"
Si       5.87476369       7.87546050       4.78231335       1.10531119       0.53148739      -6.60148447
Si       5.25457299      10.01247308       5.47646993      -2.02850888      -3.25934895      -1.61256532
Si       3.97335431       5.61982259       7.32431620       5.73008720      -2.91640343       5.30641678
Si       8.37653337       4.39650944       5.52041168       1.37211864       0.53283895       2.28610567
Si       7.64467552       4.66267977       7.73590310      -2.27273127       2.35343531      -0.44795140
Si       5.89138250       4.23944659       2.23759571       0.74823119       3.62801745      -1.86309531
Si       3.99187711       2.53066368       5.03102329       2.58694426       5.49537886      -1.11005604
Si       5.22433450       6.33547669       9.34263472      -2.63364397      -2.64256728       6.03573563
Si       4.12931166       6.36548813       5.05347569       9.60531024      -3.29749625       3.00881751
Si       6.77468029       7.37070804       7.92852671      -5.38591660      -2.52126935       1.14145888
Si       4.16091540       3.25089153       7.31539141       4.28108871       4.26118550      -2.76998207
Si       0.84337526       2.75367034       2.50162383      -5.57978174      -7.69067542      -2.61104648
Si       8.41007804       8.07555455       9.41820312      -0.10223537      -3.36852470       5.50533442
Si       7.72379512       6.50252303       4.78255516       2.54069664       3.60129367      -1.17270125
Si       4.03592465       4.45795050       3.67593302      -2.49757708       4.08847471       4.23064335
Si       7.29099305       6.08738463       2.51817036      -7.46939316       1.20417354      -9.32562990
16
Lattice="1.7439050659039483e-16 5.47748410970072 5.47748410970072 5.47748410970072 2.9140779775007323e-16 5.47748410970072 5.47748410970072 5.47748410970072 3.8774317075040437e-16" Properties=species:S:1:pos:R:3:momenta:R:3 pbc="T T T"
Si       5.84356852       7.88328071       4.51568396       0.02153489       1.08559450       0.22993140
Si       9.67250732       9.49171970      10.34131781      -4.05509839       1.10685721      -0.51136397
Si       3.58012668       5.71568481       7.19612696       2.20063577       2.56351316       3.34125786
Si       3.02963638       3.81157694       1.34881719      -1.93035702      -2.28411670      -2.99380277
Si       7.32302217       5.80722606       6.70374230       5.25788166      -0.65032767       4.80101553
Si       4.30385428       5.08775285       2.88786820       5.00159745       0.08319633      -0.15773806
Si       3.60454735       3.34994639       6.90863185      -5.63797617      -0.58955312      -1.66140788
Si       6.07313375       1.66315412       4.71656808      -1.04028737      -1.41368228      -0.13776441
Si       5.29338385       5.87080905       5.64644130       1.47408468      -2.46085411       0.18381500
Si       7.84043506       6.39109221       8.88660679       2.54568989       4.01576731      -4.24420202
Si       7.94908743       8.76585510       8.93596355      -4.83602168      -4.12843466      -1.97050859
Si       5.27153723       7.25611159       2.33879027       4.88141037      -0.53682589       4.15925804
Si       4.09439920       0.70762447       3.99696006      -0.44620331       0.65298787      -2.07234365
Si       8.06656592       7.52412027       5.23898904      -1.62950000      -1.37366813       3.25614820
Si       5.82485098       3.98782878       4.26949184      -1.73446842       1.36023887       0.15790865
Si       1.82991133       1.74543594       1.23506397      -0.07292234       2.56930731      -2.38020332
16
Lattice="1.7439050659039483e-16 5.47748410970072 5.47748410970072 5.47748410970072 2.9140779775007323e-16 5.47748410970072 5.47748410970072 5.47748410970072 3.8774317075040437e-16" Properties=species:S:1:pos:R:3:momenta:R:3 pbc="T T T"
Si       4.40644302       7.30154358       3.08551017       0.16272469      -0.08344125      -0.38333335
Si       5.32224117       6.27550187       8.75042258       2.84497390      -0.91407260      -4.01139739
Si       4.30191539       7.26529325       6.85132433      -5.12091647       1.40885097      -1.60942074
Si       2.04350429       1.31676121       0.95877686       4.11190466       0.06846890       0.93639987
Si       3.76009848       5.01875382       2.86080421       2.24083385       2.21249162      -1.62489207
Si       4.84049791       4.05134160       1.05192773      -3.19667242      -2.65565105       1.05344579
Si       8.59040177       8.42125007       6.12493950      -3.31258181      -0.41752510       4.33160829
Si       6.46307444       2.38758749       4.54714221       0.96357692       7.04425634       1.23300556
Si       5.39055699       6.29798716       5.04893755      -1.51335470       1.18408409      -0.52378277
Si       6.99349703       5.01108446       7.67943140       2.56940649      -3.33153776       3.95246885
Si       8.15790004       8.93194443       8.82760379      -1.59054796       1.14694123       0.96360474
Si       6.04008431       2.89336667       7.27335661       3.29842234       4.38198685      -1.42204262
Si       9.29565732       5.03988809       4.63126876      -4.91298107      -1.66812791       2.19598809
Si       7.63259318       6.30592409       5.71204766       2.85497039      -3.46319859      -4.27256989
Si       4.74053316       4.01658553       4.82573719      -2.77454641       0.90163963      -2.84726574
Si       7.09905308      10.00188977       6.93783263       3.37478760      -5.81516538       2.02818338
16
Lattice="1.7439050659039483e-16 5.47748410970072 5.47748410970072 5.47748410970072 2.9140779775007323e-16 5.47748410970072 5.47748410970072 5.47748410970072 3.8774317075040437e-16" Properties=species:S:1:pos:R:3:momenta:R:3 pbc="T T T"
Si      10.31066588       8.22087727       8.42285707       2.24070558      -3.29534001      -3.84492724
Si       6.18090712       4.74310620       8.75427618       5.09852726       1.60250311       3.38125775
Si       3.15621788       2.61716306       1.06986532       0.67690556      -0.60070168      -2.32044055
Si       6.68915018       3.95173350       6.22836738      -2.93493713       0.38978301       1.99903912
Si       3.05422194       5.08130852       3.78477722      -4.08412381       0.73275137       2.66878466
Si       4.59068400       4.11147017       2.22965958      -0.58597661       5.18943068       2.91432162
Si       3.39976852       3.30708730       5.17181859       3.90217075       2.56820710      -2.47722816
Si       5.62124322       2.80530223       4.50110799      -2.28223296      -2.23201398       3.59653975
Si       6.32496289       6.31061836       6.04660689      -0.26241587      -3.94845406       0.31856718
Si       6.45215857       8.09160278       7.76334809       3.23785774       1.68076127      -2.06950269
Si       8.44471880       9.31330206       7.40795469       0.04171953       1.62224311       2.52074261
Si       5.55810534       6.21947615       1.69446073      -0.11528536      -4.03794655       0.00361166
Si       4.99768838       0.59381337       4.89097583       2.13157957       0.34351973      -4.60767799
Si       8.16908904       6.63156038       4.58433674      -1.77324978      -1.40020836      -2.11739150
Si       4.28186101       6.89497879       4.84580073      -5.26210557       2.88741926      -2.67120802
Si       2.36912469       0.68833475       2.29336601      -0.02913888      -1.50195398       2.70551181
16
Lattice="1.7439050659039483e-16 5.47748410970072 5.47748410970072 5.47748410970072 2.9140779775007323e-16 5.47748410970072 5.47748410970072 5.47748410970072 3.8774317075040437e-16" Properties=species:S:1:pos:R:3:momenta:R:3 pbc="T T T"
Si       5.18652960       7.97355038       4.78020942      -3.30980510      -1.34601287       0.78053223
Si       5.18290974       6.08248923       9.23915463       1.49666694      -3.30091233      -2.11804189
Si       1.89152323       1.65773605       1.27850644       5.88958553      -1.44879065      -5.51518764
Si       6.63899862       3.84926469       7.01930272      -0.93227867       0.98858543      -3.99993599
Si       2.46880029       5.36151297       3.08947892      -3.16148738       5.35892644      -0.01941183
Si       3.67242490       3.80536844       4.36903791      -0.05230436      -1.46353641      -0.17221478
Si       8.66677751       6.47721825       6.62092497      -4.71688775      -4.14050131      -1.63990170
Si       2.95064043       7.16519892       4.66040033       3.49740357       4.27292296       0.77077730
Si       6.99218896       6.40199782       4.81729417      -4.24204707      -0.28449133       3.31856401
Si       6.52663381       8.06776193       8.83759253       0.24039322      -3.30945805       2.21485318
Si       8.52666312       8.85404672       6.64989567       3.15651751       1.71934714      -0.13431069
Si       5.44423928       5.82795982       0.65642076      -3.87174944      -2.51557859      -1.32793362
Si       4.75591754       3.91107319       8.35339606      -1.96669623      -0.79793205       9.85185866
Si       3.13263826       1.68216835       3.31460113       7.56257498       2.04825813       2.43766948
Si       5.94742206       4.31554364       4.80948685       2.05372903       3.22250881      -7.40759453
Si       6.13877599       9.10381269       6.67136065      -1.64361477       0.99666469       2.96027781
16
Lattice="1.7439050659039483e-16 5.47748410970072 5.47748410970072 5.47748410970072 2.9140779775007323e-16 5.47748410970072 5.47748410970072 5.47748410970072 3.8774317075040437e-16" Properties=species:S:1:pos:R:3:momenta:R:3 pbc="T T T"
Si       7.18154709       7.62953568       5.55263872      -6.10344154       0.74552293       1.48886608
Si       6.36445153       5.34492353       9.20223667      -3.50909036      -1.35420441      -1.67750368
Si       2.53231046       2.16865094       1.66939468      -2.42267982       0.37697496      -0.48266967
Si       3.52302678       4.27506253       1.11683996       1.51375726      -5.79544258       4.06097930
Si       4.72241261       5.81374202       2.45822907       0.53206701      -1.08711024       2.82312539
Si       5.73961472       3.98081013       3.63452753      -4.27563054       1.85501290      -0.36959307
Si       5.05097210       1.72000384       4.08814424       1.72105933       9.08073891      -0.25149089
Si       2.49266396       6.11997243       5.31252623      -0.12110385       6.66182240      -2.57380090
Si       6.94087727       5.53092610       6.84890058      -0.51461668      -3.98301706      -2.25598235
Si       3.73363768       7.51997157       3.84033245       3.01000644      -2.11248143       0.92415908
Si       3.02885047       4.04953996       6.32965624      -3.73470120       4.19894336       3.49630011
Si       5.83732283       1.75179166       6.39135879      -0.96728722      -1.84966763      -1.12257071
Si       8.04063152       9.61307938       8.64341664       1.51788427       2.85309507      -4.94275341
Si       2.84396201       1.07987212       3.72307062       8.83002326      -6.11262226       1.40202594
Si       5.35193892       4.02246831       5.95866661       1.62531829       2.10529140      -2.68885646
Si       5.26137930       8.96138468       4.91964004       2.89843535      -5.58285632       2.16976525
16
Lattice="1.7439050659039483e-16 5.47748410970072 5.47748410970072 5.47748410970072 2.9140779775007323e-16 5.47748410970072 5.47748410970072 5.47748410970072 3.8774317075040437e-16" Properties=species:S:1:pos:R:3:momenta:R:3 pbc="T T T"
Si       5.33954284       8.60779157       3.55525813       3.81293202       0.19567267       4.21852007
Si       2.22725710       4.15929162       3.35491500       2.45015107      -5.90019949      -2.71441763
Si       2.72640573       7.02055184       5.61768524      -0.55330529       5.60633524       1.17623017
Si       7.07832622       3.42355611       6.62804891       2.06018784      -1.46647942       4.15486053
Si       3.74194523       5.66001523       2.21555170      -3.02714905       0.33136722      -1.93284501
Si       7.13229349       4.97126203       3.08009751      -6.98888678      -3.29219844      -3.17591023
Si       3.65731917       2.92022747       4.78684149       1.54425952       1.88182733       2.68446990
Si       6.47272369       5.79618841      10.05063645       4.05436280       4.13349431       1.19709528
Si       6.26245572       8.53422380       7.32375445      -0.44696813      -1.59776775       1.99506918
Si       7.93473536       7.09802253       6.31112655      -5.72198905      -2.32385355       1.96223811
Si       3.58261454       5.77306005       7.40600119       0.53177547       6.76389604       2.35756339
Si       5.21679958       6.30537884       3.89154915      -1.53503698       0.95510228       0.06561878
Si       8.07844713       4.96169062       5.22003291       5.62832057      -3.54446347      -2.56488305
Si       4.99888646       7.13591355       8.76498480       2.36289754       0.16458492      -5.40414331
Si       4.72672777       3.80147307       6.73644265      -3.22569398      -1.80598667      -3.00873130
Si       4.94660334       9.84554048       5.70162113      -0.94585759      -0.10133122      -1.01073488
16
Lattice="1.7439050659039483e-16 5.47748410970072 5.47748410970072 5.47748410970072 2.9140779775007323e-16 5.47748410970072 5.47748410970072 5.47748410970072 3.8774317075040437e-16" Properties=species:S:1:pos:R:3:momenta:R:3 pbc="T T T"
Si       6.44849903       6.77815928       4.00047736       0.59238167      -1.31944954       0.87498445
Si       2.01753495       4.87187847       3.51976290       4.65356135      -2.83034712      -4.56324841
Si       5.36929222       7.58041424       7.85050684       5.31524639       0.78337959       4.21317827
Si       7.88811028       5.78732740       5.53812140       3.28109893       6.69926279       0.09545807
Si       9.16144518       7.19202744       6.92327185       5.68253949       1.13249486       1.01456173
Si       4.19486277       3.85792461       3.64910118      -0.46319673       1.50559354      -1.59230292
Si       4.60721436       3.77287235       6.06561446       1.73560866       4.10479924       3.23707582
Si       8.42948352       8.39755627      10.41634091      -7.31971455      -0.95397603       0.50969049
Si       5.22090104       8.06855603       5.55007039      -6.60276167      -7.89938619      -0.71769234
Si       7.56575595       7.18850128       8.62843997       0.19226369       1.45943641      -0.53994860
Si       3.95990418       5.69849582       7.47761376      -0.26788022      -1.55173534       2.94120246
Si       5.26105341       5.59439571       2.30642338      -4.05584948      -1.97292255       0.22752796
Si       9.51047466      10.36117338       9.65879643       3.51463858       4.22594356       0.13837557
Si       2.49286123       2.19817550       2.48684630       1.83237959      -1.55621249      -1.29032106
Si       6.94092233       3.87455195       6.60297109      -5.97297351      -1.99921823      -6.60065443
Si       6.00973645      10.26966158       5.44767317      -2.11734220       0.17233749       2.05211294
16
Lattice="1.7439050659039483e-16 5.47748410970072 5.47748410970072 5.47748410970072 2.9140779775007323e-16 5.47748410970072 5.47748410970072 5.47748410970072 3.8774317075040437e-16" Properties=species:S:1:pos:R:3:momenta:R:3 pbc="T T T"
Si       6.08902030       6.12650682       4.55963173      -2.62292363      -6.07858073      -1.91264827
Si       0.20461795       4.28919601       4.26978269      -0.00204154       2.29838777       0.54725674
Si       3.72477590       3.17246131       3.95324555      -0.38924205      -1.71616171       3.43171088
Si       7.60425011       8.69057536       9.73901251       2.19988767       0.43278892       0.06113238
Si       8.32108030       5.97117121       6.93612500      -1.68147346      -2.91892026      -4.95919712
Si       4.37311928       4.19814266       1.97313263       4.34119946      -1.93258046       8.35765482
Si       5.04507420       3.53057630       7.55169327      -3.30005062      -2.09796902       3.11459042
Si       3.52863272       6.90062760       4.63502555      -0.77846405       2.31485810      -4.08567316
Si       5.30918398       8.05620258       5.89679756       1.33218480       0.01839525      -4.24052889
Si       7.10246875       7.98700755       7.48846575       2.24273524       4.24124290      -0.03475204
Si       2.89244242       4.55265733       7.23593532       7.64546182       2.77532322      -3.10979483
Si       4.81984514       6.67844798       2.59908158      -6.46913546       1.97828104      -0.55679668
Si       9.00052833       5.10032240       4.84394353       3.22768734      -5.41607145       0.40483930
Si       2.61091956       1.06236955       3.26705319      -4.17861339      -0.06048283       1.10444987
Si       5.62118352       3.86994593       5.27134736       1.01181432       5.48614545       2.86344560
Si       2.39845676       4.87300838       4.94678993      -2.57902645       0.67534382      -0.98568902
16
Lattice="1.7439050659039483e-16 5.47748410970072 5.47748410970072 5.47748410970072 2.9140779775007323e-16 5.47748410970072 5.47748410970072 5.47748410970072 3.8774317075040437e-16" Properties=species:S:1:pos:R:3:momenta:R:3 pbc="T T T"
Si       5.47059194       7.00556029       4.38688939      -1.65006613       0.59162159       5.64470641
Si       5.57634560       5.72365903       9.54859286      -6.17231035      -2.07732955       2.34587789
Si       3.33690231       3.60331681       3.13706601      -2.83286743       1.69534261      -1.81980743
Si       7.79790052       3.75519247       4.70516794      -0.58919395      -2.65539238      -1.83271279
Si       6.95874241       5.19059701       7.73048096       0.26355438      -0.78334812      -1.04414606
Si       5.14245169       4.24404209       1.80726771      -0.70958008       0.73780023      -2.79042796
Si       4.32672551       3.24962492       5.30057537       1.35807143       3.33911164       0.46649342
Si       6.59293297       1.68274422       5.70458043       4.15046297       1.06088603      -3.60746131
Si       7.60587553       6.20157664       4.89856312       1.04170370       1.76982413       2.41136555
Si       8.28344294       7.16094267       6.95178504       0.62066575       4.41617643       3.14151493
Si       7.37955875       9.18076109       7.82091480       2.65295357      -4.86534417       2.92836677
Si       5.02621940       6.59718264       2.07694611       0.26777032      -0.19508316       3.25619537
Si       4.70725407       9.18241227       5.03068073       0.36911725       0.15274570      -4.41909487
Si       3.59713029       1.27447628       3.20653447      -3.32145241      -3.76827530      -2.71318657
Si       5.00845561       5.32867113       6.05705329       0.03614012       4.19538537       3.71157757
Si       2.79003793       5.67845942       6.80396494       4.51503084      -3.61412105      -5.67926092
16
Lattice="1.7439050659039483e-16 5.47748410970072 5.47748410970072 5.47748410970072 2.9140779775007323e-16 5.47748410970072 5.47748410970072 5.47748410970072 3.8774317075040437e-16" Properties=species:S:1:pos:R:3:momenta:R:3 pbc="T T T"
Si       1.26110548       3.84337034       4.53959090       2.02510697       0.02312531      -5.28377089
Si      10.24894972      10.56065503      10.39973495       1.11255407      -0.68629580       7.51122336
Si       2.22327261       2.94295623       2.59242130       2.93475130      -1.19038827       0.75222542
Si       6.72359243       5.25040715       5.52954337      -0.13696662       2.03971858      -0.04188879
Si       7.64522363       6.91842880       7.07538185      -2.01355799       1.14394346       7.54755095
Si       4.17509503       3.97337531       1.61555942       2.86460406      -0.14149511       0.50238004
Si       5.92825790       3.32817172       6.60585443      -5.20727975       2.25709076      -0.73881421
Si       6.01576989       1.56294890       5.11730743      -4.50431250       1.75768022      -2.88074716
Si       5.67862592       7.90440524       6.10923862       5.27934667       4.19106096      -3.80279204
Si       7.92312533       7.57603696       9.34524207       3.89676455       1.43897369      -3.40444802
Si       9.13846205       8.77388237       7.05962074      -1.90047781      -1.90265049      -0.01158202
Si       5.12265981       5.86595662       2.55702037       0.91941849       1.75538500      -0.40496307
Si       8.27669508       4.50724459       3.83396822      -1.78368017      -0.95268847       4.77502294
Si       1.96815675       0.60120130       2.24716108      -4.11828390      -2.05866577      -2.52489427
Si       4.46897883       6.37341433       4.75510493       5.08067956      -5.79234610      -3.56292803
Si       2.80259700       5.07676409       5.78431347      -4.44866693      -1.88244797       1.56842580
16
Lattice="1.7439050659039483e-16 5.47748410970072 5.47748410970072 5.47748410970072 2.9140779775007323e-16 5.47748410970072 5.47748410970072 5.47748410970072 3.8774317075040437e-16" Properties=species:S:1:pos:R:3:momenta:R:3 pbc="T T T"
Si       1.24162794       3.41226814       3.60720837       1.97779056      -2.77997132       0.03353923
Si       4.84390480       4.76726045       8.53082523      -3.91432256      -1.17957290       0.04615557
Si       3.09052492       2.88326159       1.32362909       5.02140843      -2.45901629      -1.34507443
Si       7.25538971       3.97806895       5.19555364      -0.34426190      -3.90014756      -2.91819682
Si       8.63057636       7.32479574       5.99553660       1.59071911       1.26915110       0.18594209
Si       3.40714210       4.32368376       3.11427664      -1.19135491       5.65238294       0.83752481
Si       4.76684503       3.18563073       4.73790738       1.70748122       0.45450890       4.59889324
Si       6.06231490       6.59210285       9.57132039      -3.97760075       1.91479053       0.89726377
Si       4.88058706       7.30611506       5.78357367       7.36350951       4.02652294      -2.44770324
Si       8.19047648       6.57331486       8.26007060      -2.72122526       2.57370354       1.00048079
Si       6.70854067       8.74144329       5.92266607       2.62086860      -5.85322418      -5.04716859
Si       1.69851524       1.36802758       2.44206664       1.31106399       4.01165725       4.50264389
Si       9.20360827       8.27674621       9.45081801      -5.42123118      -2.96898728       0.44649294
Si       8.36918454       5.77434881       4.18035734       0.11740769      -2.10765231       1.90035207
Si       5.25819333       4.99987947       6.21324381      -1.84043836       0.61764974       2.34169994
Si       5.99313610       5.55227150       0.83800968      -2.29981421       0.72820491      -5.03284526
16
Lattice="1.7439050659039483e-16 5.47748410970072 5.47748410970072 5.47748410970072 2.9140779775007323e-16 5.47748410970072 5.47748410970072 5.47748410970072 3.8774317075040437e-16" Properties=species:S:1:pos:R:3:momenta:R:3 pbc="T T T"
Si       2.53518386       2.28592612       3.08605575       0.72392288      -3.04670752      -0.13071946
Si       5.80514658       5.43276642       7.60707149      -0.52461702      -0.14006099       1.18763025
Si       3.89158929       6.71732740       6.92127216      -0.64821735       5.41586299       2.87382386
Si       6.02643476       3.03457240       4.00362213       2.78244475      -3.42668109       3.24056883
Si       9.71663021       7.50872392       8.66385959       1.29196346      -5.38498332      -1.34388850
Si       5.18861093       5.37136121       3.01369341       2.03166372      -2.45876945      -4.92316973
Si       3.68738193       3.99665076       4.11833445      -0.58445480       3.32545962      -0.74753332
Si       6.20465838       1.28570807       5.54440176      -1.19429013       2.58383119       0.60752476
Si       4.71890328       8.43825913       5.42111460       0.63556443      -5.69026349      -2.17736840
Si       7.70670073       7.09025257       7.30262893       0.40021997       3.67603566      -2.45984188
Si       6.48150148       9.14612262       7.01125880       3.41140635      -1.83337986      -4.48385288
Si       6.02392284       2.90105053       7.40886233      -2.66864271       3.30088284       5.33394350
Si      10.15347139      10.70220289      10.04144292      -2.03924870       4.38309878      -1.31624348
Si       8.16395709       6.40403619       5.01531101      -1.74126694       0.63492778      -2.21297900
Si       6.29167350       5.04408581       5.13904558      -6.16411585       0.24274447       8.53302671
Si       2.48228531       5.17765704       5.82405646       4.28766793      -1.58199760      -1.98092124
16
Lattice="1.7439050659039483e-16 5.47748410970072 5.47748410970072 5.47748410970072 2.9140779775007323e-16 5.47748410970072 5.47748410970072 5.47748410970072 3.8774317075040437e-16" Properties=species:S:1:pos:R:3:momenta:R:3 pbc="T T T"
Si       2.36005757       3.50768666       3.08403483       0.30336528       3.21624399       2.93644568
Si       5.86456260       4.53412982       7.50283143      -0.43279593      -2.01376941      -3.92663174
Si       2.52048210       1.88084787       1.42046122      -0.23997405      -2.71968246       1.15677847
Si       3.62856792       8.44120043       5.14418384       4.99124049       4.13248998      -2.36389484
Si       8.55611830       7.12567651       8.73155566      -1.89403230      -1.10529529      -3.55351289
Si       4.17239000       5.02513331       3.34982619      -0.01326582       5.99872145       3.08335823
Si       9.34379755       8.55814954       7.06244130       0.21003361       1.00302356       2.27403337
Si       5.07160177       2.28256681       4.33010635       2.25436982       0.66142448       0.62639562
Si       5.84673086       8.19093573       6.06694118      -5.15545694      -0.47384336      -0.31429668
Si       6.25037239       6.83675280       8.02142166       0.12540344      -3.55892621       2.35361255
Si       2.61806880       5.09772792       7.71450558      -6.04195007      -6.28133925      -1.83290158
Si       5.74386919       1.51220439       6.37367651      -2.81301340      -4.92613675       1.75374091
Si       8.00569834       5.16725804       4.58554176       1.10327022      -1.47824272      -2.08920234
Si       8.02139151       7.64110004       5.05481504       9.68182897       2.29949993      -3.29814047
Si       5.78964035       4.46607112       5.06025222      -3.53539779       2.66674001       5.90238280
Si       5.80721821       4.79177799       1.66446839       1.45637447       2.57909206      -2.70816707
16
Lattice="1.7439050659039483e-16 5.47748410970072 5.47748410970072 5.47748410970072 2.9140779775007323e-16 5.47748410970072 5.47748410970072 5.47748410970072 3.8774317075040437e-16" Properties=species:S:1:pos:R:3:momenta:R:3 pbc="T T T"
Si       2.10655781       2.68144572       4.42597963      -6.66018699      -0.22797839      -0.98115398
Si       5.42437179       8.09226124       3.49304569       6.50777817      -3.02880119       2.39844788
Si       4.51643623       3.19740195       1.38654441       2.97628592      -4.52168427      -0.38983275
Si       8.89297106       8.27859178      10.25807919      -1.65567991       2.14978261      -3.85172769
Si       3.94537992       5.04357349       2.80708056       2.33067169       3.00382874      -0.98593035
Si       6.18303647       5.84575282       2.83944966       1.35400440      -0.10635327       4.65591512
Si       4.62069454       2.81977650       6.76972340      -1.84557087      -0.36593374      -2.37539027
Si       5.91098621       7.26160798       9.06580471       6.49457015      -0.91053961       1.71151948
Si       6.42250817       7.14615496       6.27655355      -3.12257633      -0.33438153       1.86016869
Si       8.20651907       7.04795341       7.83363763      -4.40976726       1.38952611       0.89119106
Si       3.46447206       4.53119220       5.09383020      -3.19342600       2.60387815       2.55809501
Si       5.69100159       0.88718471       5.82255952       0.36473961      -1.53970452       3.65325086
Si       6.89062136       3.92816360       4.12689658       2.60956143       0.49887474      -3.62198607
Si       3.56044416       1.51855610       2.87970734       2.02281514      -1.63502768       0.53467493
Si       5.69842360       4.85893139       5.91677016      -1.16402170      -1.55170630      -1.53064770
Si       2.58865930       6.44318703       6.17140093      -2.60919744       4.57622015      -4.52659421
16
Lattice="1.7439050659039483e-16 5.47748410970072 5.47748410970072 5.47748410970072 2.9140779775007323e-16 5.47748410970072 5.47748410970072 5.47748410970072 3.8774317075040437e-16" Properties=species:S:1:pos:R:3:momenta:R:3 pbc="T T T"
Si       1.62332996       1.70593063       2.97668906       3.03240890      -1.11133079       4.41306386
Si       1.53601837       3.95900283       3.83955844      -3.12372604      -0.53722262      -2.35555208
Si       4.28417245       2.82309514       1.56798957       3.31855383      -1.93088606      -0.00480840
Si       4.96199435       8.67833529       4.86943802       6.86442122       0.97643549      -1.13810749
Si       8.09905661       6.39940376       6.49411751      -4.58568277       6.31519269      -3.17826227
Si       3.78476982       4.92012535       2.38771436       2.15503372      -1.73493678      -5.95961463
Si       4.99856988       4.10304863       6.11629694      -0.61728817       3.83704583       5.97036923
Si       6.50488831       2.83019236       4.82318127      -0.85634889      -0.57766566       1.81732692
Si       6.29501457       5.39794652       7.58740224      -3.42882714       5.40910525      -0.79621698
Si       5.19144281       7.03679354       8.80082708       0.76760408      -7.23002017       1.28474619
Si       9.17814807       8.20590428       7.47174060      -0.06985780      -2.89849311      -2.27462034
Si       4.87415790       6.72793596       3.47376604       3.02249015       3.94832040      -2.02578801
Si       8.37526405       9.34397333       9.32907902      -2.82831042      -5.54774492       2.02788958
Si       8.69266785       6.11491305       4.26039706      -1.47258301       3.86918097      -0.00825814
Si       3.32267988       5.24701305       4.91939063      -2.21141812      -1.99128130       1.84408406
Si       2.40090846       7.04308937       6.24947532       0.03353044      -0.79569922       0.38374849
16
Lattice="1.7439050659039483e-16 5.47748410970072 5.47748410970072 5.47748410970072 2.9140779775007323e-16 5.47748410970072 5.47748410970072 5.47748410970072 3.8774317075040437e-16" Properties=species:S:1:pos:R:3:momenta:R:3 pbc="T T T"
Si       1.58114640       2.95865737       3.06891463      -2.66271332       0.74668132      -1.84669696
Si       7.56058068       7.97434694       5.36291923      -2.01303144      -3.59592183      -4.88025889
Si       3.13028364       7.20074501       5.53641118      -2.56132742       2.58973524       0.16041726
Si       8.75588001       4.11630838       5.10721190       1.36857829      -3.46751172      -2.11670289
Si       4.32395252       6.07872237       2.54431882       4.33872958       1.39314612      -1.45690678
Si       5.26266569       2.29766978       3.37158358      -2.97949268       2.73796304       5.94046242
Si       4.32341972       3.34276109       5.28464796       7.34520786       3.02621682       5.26981785
Si       6.62130597       6.28381537      10.01176903       0.83720013       0.72944011      -0.98878938
Si       7.05915522       5.69707742       5.80812861       2.12876651       5.03932551      -2.45783624
Si       7.56084177       5.23499837       8.10232607      -5.02700664      -0.25533851       2.80074875
Si       6.62085844       9.02278347       7.27379296      -1.76769689      -0.42877079       0.90302952
Si       4.82697608       2.87892411       7.57887557      -1.89153358       1.09388577      -1.21942909
Si       8.60634526       9.93936949       8.27598019       4.43742710      -1.02952138      -1.89681561
Si       3.27812453       1.37907813       2.36878785      -1.92462391      -4.13648673       0.85795476
Si       4.82551511       5.61897832       4.84016368       0.51414731      -2.40226352       1.52686587
Si       5.26351641       5.03498339       0.63123188      -0.14263090      -2.04057945      -0.59586056
16
Lattice="1.7439050659039483e-16 5.47748410970072 5.47748410970072 5.47748410970072 2.9140779775007323e-16 5.47748410970072 5.47748410970072 5.47748410970072 3.8774317075040437e-16" Properties=species:S:1:pos:R:3:momenta:R:3 pbc="T T T"
Si       1.92002300       1.85258128       3.63156092       0.55170648      -1.79843480       0.80964143
Si       3.28268036       5.87848387       3.39404153      -3.91511990       5.37466214      -0.03234401
Si       3.39611347       7.04061070       7.09672318       0.14322963       1.91317115       4.79544752
Si       8.58243145       3.43852548       5.59554081      -1.77946463       5.03140810      -1.33437091
Si       9.18410135       5.54716434       6.52593389      -2.18979286       1.75388906       1.73136241
Si       5.83003590       3.03917518       3.72458476       3.03594323       1.45114308       3.87765853
Si       6.27005959       3.89744535       5.89685010       1.94295157       2.16238144      -3.98580514
Si       6.47044882       6.23116229       9.41768610       2.05886396      -2.87942075      -1.85770559
Si       5.60499810       5.97509466       7.05327680      -0.28935270      -3.14836977      -1.28428311
Si       7.41753402       7.20018957       6.03523628      -2.22765046       0.97752744      -0.45224587
Si       7.25205205       9.19840282       7.37181623       0.76063209       0.91189633       2.62451362
Si       5.67604427       2.39284699       7.60236041       4.12592507      -2.48499891      -1.73632060
Si       9.07902092       8.35760243       8.74706894      -0.45183577       0.94235963       0.96290852
Si       3.60000377       3.45737428       3.18191107      -6.79615407      -0.94219779       0.58042931
Si       5.41846517       5.80039175       4.53576512       2.71565146      -5.61369608      -3.02699436
Si       0.61655521       0.27468389       0.83419113       2.31446691      -3.65132028      -1.67189173
16
Lattice="1.7439050659039483e-16 5.47748410970072 5.47748410970072 5.47748410970072 2.9140779775007323e-16 5.47748410970072 5.47748410970072 5.47748410970072 3.8774317075040437e-16" Properties=species:S:1:pos:R:3:momenta:R:3 pbc="T T T"
Si       6.65164760       6.32445106       3.10620080       1.26102492      -3.11039318       4.05599687
Si       6.84918907       4.78630590       8.29321138       2.34446703       0.19220487       0.61850487
Si       4.90334385       7.75130437       6.41926498      -3.77710328      -1.41865056       0.25334758
Si       9.55337295       4.27171803       5.39628197       1.19245553       5.04438486      -3.75379285
Si       8.18847711       5.92651510       6.40005116       0.27822996       3.64321317       6.13713301
Si       3.65977948       3.91267016       3.19721439       2.00558772      -2.03727203       1.27031439
Si       4.67481274       2.07143482       5.83066450       1.06113181      -3.60639763       0.49847278
Si       5.19493185       5.95465240       9.61566170      -0.63220114       4.81487527       0.22918478
Si       6.05486833       6.00039774       5.36582930      -0.35805622       2.70415258      -0.04273648
Si       8.48763937       6.37856417       8.74444673       4.99085860      -0.45159124      -1.77730822
Si       2.68572336       4.67013252       7.15693843      -5.80850011       0.23268829       1.73221021
Si       5.63643004       2.78473417       7.83900492       2.66603743      -1.61141312       3.31838733
Si       8.99570763       8.67929047       8.83308985      -2.64718209      -3.16348398      -4.31358702
Si       3.52755891       1.41173113       2.68337746       3.27351717      -2.73594733      -4.41431379
Si       4.28604483       4.34817876       5.40067611      -2.05061484       1.13082547      -2.91058885
Si       5.72852446       4.30965407       1.84011772      -3.79965248       0.37280458      -0.90122461
16
Lattice="1.7439050659039483e-16 5.47748410970072 5.47748410970072 5.47748410970072 2.9140779775007323e-16 5.47748410970072 5.47748410970072 5.47748410970072 3.8774317075040437e-16" Properties=species:S:1:pos:R:3:momenta:R:3 pbc="T T T"
Si       2.01291553       3.24423796       3.56802963       2.77172033      -0.18206050       4.51270842
Si       5.66306726       3.41430213       7.54893231       0.13815817       3.65081605      -2.92281998
Si       4.69163384       7.87910227       5.92940492      -2.27588953      -0.03090692       0.01806979
Si       8.95321575       4.29778492       5.09012453      -0.18974576      -4.50626845       3.63264629
Si       9.02449891       6.46086797       6.07533845      -3.80350928       3.14397832      -3.80651955
Si       4.67764891       5.98443779       4.48153767      -5.24319132      -5.84720187       0.57539813
Si       4.93286717       2.11552021       4.52229809      -3.73475544      -2.89255765       4.70686001
Si       2.44183225       5.33137765       4.60212199       4.26485281       1.19346650       2.53395190
Si       7.05695722       8.11809605       5.89505233      -2.28457022      -5.95140259      -1.59363600
Si       6.76064018       6.84356726       8.70802939       1.35326857      -0.03750180      -1.22479678
Si       7.39318797       9.08101150       8.97800839       6.45566514       5.49501667      -1.30076246
Si       5.30907067       6.49072929       2.20547346       3.20028106       0.85481780       0.49945230
Si       3.84659205       4.87668350       8.24530308       5.87163501       6.28710492       0.40236174
Si       3.71002002       1.84690876       2.56234729      -2.87297784      -7.39636614      -0.99482208
Si       5.93549295       4.13982485       5.27301463      -3.89009739       2.27693312      -0.26632449
Si       7.19092677      10.41225099       6.95953111       0.23915569       3.94213254      -4.77176725
16
Lattice="1.7439050659039483e-16 5.47748410970072 5.47748410970072 5.47748410970072 2.9140779775007323e-16 5.47748410970072 5.47748410970072 5.47748410970072 3.8774317075040437e-16" Properties=species:S:1:pos:R:3:momenta:R:3 pbc="T T T"
Si       7.50689500       7.27394110       4.18784325       1.65236680      -3.44384761       1.41554788
Si       6.03329289       5.32141477       9.06498518      -4.70372489       2.20970578      -1.24707747
Si       4.73804409       8.24268278       6.94346924       0.81500900      -6.22241791       0.36048264
Si       7.86164915       5.95937240       6.17540146       0.35498828      -1.90387818      -4.45154269
Si       4.36265608       5.10632311       1.79519417      -3.13037037      -3.90220965       2.53292689
Si       2.71622359       4.09006484       4.28388054      -1.40445205       2.70159323       3.09497614
Si       4.76188914       3.20930658       5.81494239      -1.71511754       5.60983335       1.99371321
Si       5.57354839       0.89353031       5.68680023       2.82168412       4.17400550      -2.55775310
Si       3.88536480       7.32399393       4.95277882      -2.19401358      -5.07288545       4.94324200
Si       6.68739163       7.19493503       7.75951012       3.82177462       0.75641770      -2.09881620
Si       8.03463341       8.63972390       9.05277242       1.85884264       7.60450716      -2.19724895
Si       5.44165136       6.10147187       3.72466224       0.61663211      -8.29474142       0.60656621
Si       4.20604342       4.36435609       7.87940935      -1.02041968      -3.03765986       0.82833467
Si       3.37778676       1.09398753       2.43383967       2.41149356      -0.03518615      -0.25410705
Si       6.56228048       4.41557277       4.94436462       3.32806726       3.45102533       1.16122205
Si       2.37373318       5.82854198       5.94469357      -3.51276030       5.40573819      -4.13046623
16
Lattice="1.7439050659039483e-16 5.47748410970072 5.47748410970072 5.47748410970072 2.9140779775007323e-16 5.47748410970072 5.47748410970072 5.47748410970072 3.8774317075040437e-16" Properties=species:S:1:pos:R:3:momenta:R:3 pbc="T T T"
Si       2.46786719       2.13270773       2.48398347       2.83670941      -2.16428334       1.08591656
Si       6.31658136       5.14703484       8.87693919       0.43810984       2.00615843      -1.76295545
Si       4.59431424       7.69464560       7.04817833      -3.25608914       0.87677840      -1.29149070
Si       6.86217341       4.01504780       6.84073246       3.77840148      -4.20695375       3.50076679
Si       9.16158807       7.26390471       8.77372751       1.27195670      -3.51740436      -0.02481917
Si       3.77548242       4.24232558       0.69895179       4.19097368      -1.56279496      -1.21500167
Si       5.07200208       2.49911930       5.42533482       0.84854018       5.87397943       2.81926423
Si       2.43845032       4.70195990       5.14828460       1.17645421       3.26735491       4.61697674
Si       4.39736579       6.15875006       5.22433457      -7.49826379       3.05879679       5.79627434
Si       6.23657768       7.56910679       8.81358621       0.11619819       0.71354218      -1.59631319
Si       7.38596140       4.25069238       3.40831835      -4.81772275      -1.22451035      -0.25012346
Si       4.76405632       6.21278282       1.46285491      -8.23698057      -1.66791623      -6.00993021
Si       9.69305146       9.49014946       9.35305009       6.39997907       3.64111213      -3.91539481
Si       2.70599751       2.33600662       4.84129788       2.71225932      -0.68419038       4.24355376
Si       6.72122842       5.70251934       5.13583531       0.67697898      -3.92564030      -3.74518238
Si       1.53038567       0.16498196       1.63165366      -0.63750480      -0.48402861      -2.25154138
16
Lattice="1.7439050659039483e-16 5.47748410970072 5.47748410970072 5.47748410970072 2.9140779775007323e-16 5.47748410970072 5.47748410970072 5.47748410970072 3.8774317075040437e-16" Properties=species:S:1:pos:R:3:momenta:R:3 pbc="T T T"
Si       6.60616444       7.49126594       4.19504484       0.04506533      -1.79229994       0.28276044
Si       2.31057360       4.01313457       4.78599594       2.18248424       4.29820126       1.53585675
Si       3.22786087       3.43431411       2.01478119      -6.65050661      -0.12238179      -2.87905234
Si       7.84021461       5.34533295       6.56972232       5.73053714      -0.30907029       4.35297868
Si       8.52042879       7.04733177       8.06523981       1.07918075      -3.93964454       7.05896020
Si       5.42585379       4.20908867       2.48676917      -3.16223398      -2.02686320      -1.44051067
Si       5.19483275       1.81737728       5.41075947      -1.98177192       0.89511805      -0.95566008
Si       7.16562229       6.28747857       9.86783227       4.76740527      -0.64554129      -1.76757981
Si       5.72672684       5.92947478       5.78500700       5.78643697       1.22670413      -2.41252000
Si       5.40592279       6.65479741       7.98359491       0.68244758       1.21208998      -2.86477460
Si       7.60664160       9.04279836       7.18855400      -2.42041268      -0.02958106      -2.09270208
Si       5.43701808       6.64294979       2.25853300      -2.76183146      -2.08573136      -3.17938686
Si       3.43349309       5.33836005       7.99733775      -6.15441851      -2.97194161       1.19329420
Si       8.65482260       6.29989309       4.61660677      -1.49317645       3.18372486       2.91190142
Si       4.74139282       4.03820362       4.75828168       2.53145750      -2.23828553       0.11376344
Si       2.30299851       1.46741803       1.18300303       1.81933682       5.34550233       0.14267131
16
Lattice="1.7439050659039483e-16 5.47748410970072 5.47748410970072 5.47748410970072 2.9140779775007323e-16 5.47748410970072 5.47748410970072 5.47748410970072 3.8774317075040437e-16" Properties=species:S:1:pos:R:3:momenta:R:3 pbc="T T T"
Si       5.13410562       8.84656018       4.24603039       3.67166434      -3.94907406       2.70535433
Si       6.74988727       4.52408855       8.44943262      -4.60342180      -1.32035287       3.48001501
Si       4.28684291       1.59175800       3.22861694       2.12904442       2.36367967       5.14998387
Si       2.37103103       2.57086279       2.24748684       5.33538124       1.51419292      -3.19538953
Si       9.29482782       7.40365749       8.37055143       3.79836775       0.33205567       2.29067672
Si       6.47970548       4.62582301       2.80684722       0.81999179      -3.08575964      -9.08288928
Si       3.93899453       4.60213289       5.69518090      -0.89950545      -1.32626971      -0.94860175
Si       2.58549206       5.96677898       4.32880456      -1.24371891       1.84181142      -0.88863051
Si       6.47942589       7.49235318       5.66976228      -4.62653580       1.48586743      -1.88492309
Si       5.40521348       5.88091351       7.02752399      -0.24629008      -0.86550577       5.13000679
Si       7.94476598       8.77077323       7.00391715      -7.16233019       0.83672934       2.51929874
Si       5.13362071       6.04818104       1.45189374       1.14582120      -4.62996558      -3.29905839
Si       9.51622802       5.32112352       4.97595550      -0.19711347       6.10334377       1.16553046
Si       7.60136954       6.30209201       3.99549384       3.41823674      -2.80738839       3.29555931
Si       5.40694089       3.26864892       4.41874771       3.07786320       3.74663735      -1.70917603
Si       6.74960034       1.84347170       5.77333393      -4.41745499      -0.24000154      -4.72775664
16
Lattice="1.7439050659039483e-16 5.47748410970072 5.47748410970072 5.47748410970072 2.9140779775007323e-16 5.47748410970072 5.47748410970072 5.47748410970072 3.8774317075040437e-16" Properties=species:S:1:pos:R:3:momenta:R:3 pbc="T T T"
Si       1.80388285       2.64913674       3.09554463       4.48313380       2.62071586       3.22229833
Si       5.98184510       4.53324287       9.00697997      -0.57551443      -1.57757302      -4.12035175
Si       5.42495405       7.92554569       7.55651083       0.42185126       1.14366503      -0.26720403
Si       3.41485108       3.93699467       1.47964596      -1.64525201       0.24194721       0.52216001
Si       3.62380980       6.13700127       2.61161340       0.59732518       0.78052360      -1.91137243
Si       5.21876061       2.77314510       4.51952075      -2.93992157       7.83723305       4.86265716
Si       3.73519497       4.20042027       5.98886925       5.42600326      -0.64693383      -5.20245191
Si       2.46143877       5.49068769       4.53086471       0.86044428       1.23471870       1.74490378
Si       5.44204534       5.56678642       6.96252953       3.21705202      -0.95192401       0.04988213
Si       7.86798642       8.09196431       7.25268318      -2.21288479      -1.89623621      -0.84684747
Si       7.63042240       4.57442223       3.32639706       0.01422117      -5.84425766       5.39599121
Si       6.04941723       6.23183527       2.44328958      -4.31741426      -1.78711208      -2.27750644
Si       9.52310560       5.05063699       4.84485310      -1.32141159       2.92520254      -3.51508530
Si       8.49516973       7.27074657       4.93087052      -1.26961587      -0.96768564       3.65580394
Si       6.83242518       4.24193974       5.54481582       3.61190782       1.50699948      -5.19914962
Si       6.09525834       0.90722905       5.59459075      -4.34992428      -4.61928302       3.88627240
16
Lattice="1.7439050659039483e-16 5.47748410970072 5.47748410970072 5.47748410970072 2.9140779775007323e-16 5.47748410970072 5.47748410970072 5.47748410970072 3.8774317075040437e-16" Properties=species:S:1:pos:R:3:momenta:R:3 pbc="T T T"
Si       4.44156884       7.66994754       3.95580291      -3.21593640      -1.34421015       1.65591440
Si       6.78935965       5.46090487       8.48138440       4.26987299      -7.74538929      -2.33425870
Si       4.86394962       8.32005985       6.27950501       1.80918386      -3.51757686       0.45091320
Si       2.64516280       3.64760628       2.22805523       0.68398213       1.03668520       1.99343411
Si       4.10655417       5.01907958       0.99641661       3.84868496       1.57641415       1.65008757
Si       5.92024991       3.10789707       4.32216652       4.77363714      -1.86673363       5.53421679
Si       3.09760925       4.00453565       6.31361465      -2.27102303       0.51362972       0.02201114
Si       2.65505347       6.06001117       4.99069253      -0.40158901       9.65128010      -1.90223155
Si       6.66764012       7.33751546       5.12382618       3.90699933      -1.12856384      -0.47221132
Si       6.81736678       7.76396822       7.56068457       0.77000308       4.28274442      -1.96094254
Si       4.57036158       4.37731745       8.30152425      -3.72466931       4.47286416      -0.10783227
Si       5.51579475       6.37222392       2.25151680      -5.07018842      -1.28405108      -0.64808749
Si       8.91710022       5.77755157       4.34634640       0.94672094      -6.34072852      -4.87464877
Si       3.54760206       2.70954509       4.27289325      -3.17522756      -2.29882126       1.27394292
Si       6.66269594       5.28416107       3.97965691      -2.61675075       1.64827223       1.74807328
Si       1.42753009       2.14689420       0.80800873      -0.53369995       2.34418464      -2.02838077
16
Lattice="1.7439050659039483e-16 5.47748410970072 5.47748410970072 5.47748410970072 2.9140779775007323e-16 5.47748410970072 5.47748410970072 5.47748410970072 3.8774317075040437e-16" Properties=species:S:1:pos:R:3:momenta:R:3 pbc="T T T"
Si       1.83454951       3.17509117       4.23258547       0.51730601      -0.91340257       3.38341400
Si       5.56922943       6.17950571      10.33836717      -1.19130483      -1.39386517      -5.67977699
Si       4.75362956       4.37596742       0.69017710       3.43177707       4.66558297       0.14991346
Si       6.57850138       3.49722669       7.48799327       0.31897717       1.81560393       1.43474451
Si       8.07278057       5.20411200       6.76340664       1.62846881       4.56709787      -1.36751802
Si       6.32589632       8.79667745       7.67137278      -4.33482499      -7.72390185       2.57985529
Si       3.62840185       4.55739001       4.96698013      -1.27559887      -3.45303820      -0.08104764
Si       3.43438292       6.89656819       4.69723829      -9.44725495       1.88238492       2.57610143
Si       5.52423720       7.69294676       5.43547102       7.91902027      -4.21182407      -1.53427725
Si       8.25649058       7.33248584       7.89303927       5.47946746       4.49954783      -0.38922669
Si       4.15508161       3.76022004       7.18947477       4.07091828       0.53152823      -3.19898524
Si       1.75048702       1.50679271       0.88870765      -1.34098127      -2.08532914       1.15918600
Si       7.10540428       5.84095977       4.68687498      -0.56481735       1.43947003       1.36143153
Si       3.59934092       1.87586921       5.33704445       1.55761256       2.66884375      -1.45117532
Si       5.74253631       3.65775258       4.45701549      -2.32018742       0.37265379       0.87236929
Si       7.79213389      10.70965344       7.90879881      -4.44857794      -2.66135231       0.18499165
16
Lattice="1.7439050659039483e-16 5.47748410970072 5.47748410970072 5.47748410970072 2.9140779775007323e-16 5.47748410970072 5.47748410970072 5.47748410970072 3.8774317075040437e-16" Properties=species:S:1:pos:R:3:momenta:R:3 pbc="T T T"
Si       1.22109039       3.60950927       3.28523234       0.54415403       4.46566795       1.88282027
Si       1.22284387       5.30569225       4.89786152       2.37255903      -1.56442211       1.64212623
Si       4.63805136       8.17402399       7.15704314       2.64879869      -0.78300384      -4.89506040
Si       7.17038507       5.00437369       6.93415739      -1.08286371      -5.31765466       1.19946364
Si       4.05616879       5.01894228       1.66687301      -3.85291373       1.03892485      -1.18553972
Si       6.97193389       5.82653169       3.18040479       4.57605959       0.78634995      -3.36540000
Si       4.52320703       2.78107489       5.12990106      -0.09695693      -3.74542259       1.07221007
Si       7.37502928       7.49662758       9.76472423      -3.25182177       5.16128473      -7.42058825
Si       3.93355732       6.92464222       5.31109728       1.40431228      -1.00472487       1.14584082
Si       6.83983989       7.28967747       7.48105274      -3.87628477      -1.10037744      -0.77633394
Si       8.88799732       8.42210655       7.13985013       5.24837788       3.89891081       4.38577790
Si       5.03989002       7.32409846       3.21246729       0.19774431       2.81357196      -1.41266013
Si       9.97118781       5.90101946       5.06333791      -2.96784929      -7.31320423       4.73864338
Si       3.08427985       2.16679195       3.39033172       1.44353588       2.13552063       3.53539852
Si       6.49008456       4.12292217       4.84819014       0.17108474      -0.88742408       0.50114167
Si       2.69753691       5.16866917       6.70453848      -3.47793624       1.41600293      -1.04784006
