32
Lattice="10.953064772841406 2.0414019778866393e-15 2.391532347210215e-15 2.041341254603979e-15 10.953064772841403 9.315213603459425e-16 1.1956332070866667e-15 4.658151368277192e-16 5.476532386420701" Properties=species:S:1:pos:R:3 pbc="T T T"
Si       0.43821196       5.63916826       3.52006661
Si       2.78047132       3.48835832       1.96944083
Si      10.42951497       9.36404735       2.96113537
Si       7.82337114       7.02057459       4.46930967
Si       2.82820909       8.55396333       5.21207357
Si       9.40297062       1.76475004       1.53472725
Si       6.94522983       9.19964648       4.67908839
Si       3.16315205       8.51369216       2.12557297
Si       6.82216087       6.04610606       2.61553580
Si       0.14827898       7.97336853       0.97483268
Si       1.26958194       2.06067687       4.84898296
Si       6.48371391       2.43810768       1.76482286
Si       5.39442784       7.75772261       1.73974914
Si       0.79306089       9.75084441       4.98575361
Si       1.14996354       5.14242874       1.30045386
Si      10.09613005       7.42198402       4.29723465
Si       1.90951131       1.37894079       2.71484424
Si       4.69356002      10.00966694       4.58309110
Si       0.41232054       0.61017615       1.04470792
Si       5.25151417       5.71955387       0.49398284
Si       3.50427057       2.53651963       5.46057828
Si      10.82814805       3.95860196       5.09210373
Si       8.50809954       3.16645411       5.36540819
Si       8.06419228       1.81345269       3.41739357
Si       5.18314060       4.31169102       2.41064336
Si       7.56497165       5.29162591       0.52117076
Si       6.70307578       9.75505861       1.43226590
Si       8.24611907      10.39692509       3.12146223
Si       2.28643750       6.21091999       4.91025497
Si       3.68794439      10.79341145       2.60262283
Si       3.95183499       4.59865063       4.38622957
Si       5.04400036       0.69025646       0.89592879
32
Lattice="10.953064772841406 2.0414019778866393e-15 2.391532347210215e-15 2.041341254603979e-15 10.953064772841403 9.315213603459425e-16 1.1956332070866667e-15 4.658151368277192e-16 5.476532386420701" Properties=species:S:1:pos:R:3:momenta:R:3 pbc="T T T"
Si       9.62086647       5.15494552       3.52015098      -0.21938822       1.15989427       1.90453963
Si       2.17273914       5.46796337       2.67300555       1.86118315       3.68242531       4.89667313
Si       9.79693834       9.41422288       2.32347300      -4.91221771      -1.82007722       0.56288077
Si       7.73832619       7.78489167       4.84544553      -4.05969950       4.52568846      -4.54615981
Si       4.31569093       8.09045911       5.19460032       2.09726949       5.15198850       1.29581366
Si       9.32068969       2.39602829       1.36017208      -4.07115966       1.37518604      -0.85225048
Si       6.26445893       8.35894415       3.08543566      -2.73734876       0.10531193       4.11986272
Si       2.51985122       9.86947769       2.79256507       0.70048901       0.71994527      -2.05752783
Si       9.49040773       4.75126563       1.23157186      -0.64920697      -2.15769569      -4.27121524
Si       0.73992939       7.71998618       5.22323439       1.85981791       7.60893889      -8.57434199
Si       1.48032757       2.13157722       4.36287873       4.30576638       1.79864097       0.88280234
Si       6.95743661       2.11352347       1.48895322       5.59901154      -2.46596046      -0.93459714
Si       4.65046905       7.18609438       1.88944983       0.51518120      -2.98624025      -1.53060027
Si       0.79070394       9.69039533       1.04621627      -3.81017681      -0.64403815       4.33136333
Si       0.73222482       5.58299100       0.76915573      -1.28412035      -0.11951239       3.21893612
Si       9.84391523       7.62129000       3.82063806      -4.87901878       1.45052529       3.71927027
Si       1.94065202       1.20142658       2.21507381      -1.34829639      -1.06056916      -0.99416612
Si       2.96389833      10.08608447       5.23693009       2.77608624       0.53530338      -0.53378161
Si       0.16815873       1.04236713       0.57838918       3.72405240      -0.99518891      -0.35496224
Si       5.03904466       3.41869923       0.83927619       4.60642282      -3.47943085       1.56000841
Si       3.39048026       1.77577548       0.27164384       0.88942932      -0.39328366      -1.18472300
Si       0.84150570       4.38471767       4.24232952      -1.27568188      -1.24135078       5.63994455
Si       9.23307644       2.47963642       3.82397144       3.36468319      -4.38569361      -3.05572059
Si       6.85744329       2.30892090       3.80878756       0.71232253       0.50445751      -3.13901043
Si       4.48864852       4.93965548       2.52313729       4.05469937      -1.73141394      -3.40829776
Si       7.87324724       5.46806886       5.10183523      -4.47957767      -1.29958467       0.64156075
Si       6.27141609      10.90492873       1.02041355      -1.13342407      -4.38431947       1.57271752
Si       7.71208812       9.10161645       1.30171182      -1.86401753       1.75297744       1.03802572
Si       2.55463377       7.61213464       3.66879443       0.18694990       1.25857829       0.10832489
Si       4.86097843      10.23793943       2.77910066       5.09546544       2.43354689      -0.48075389
Si       5.91170167       4.37027259       4.37013468      -4.18733646      -5.72354253      -0.17382264
Si       5.26564131       0.71104480       4.56646057      -1.43815916       0.82449332       0.59920725
32
Lattice="10.953064772841406 2.0414019778866393e-15 2.391532347210215e-15 2.041341254603979e-15 10.953064772841403 9.315213603459425e-16 1.1956332070866667e-15 4.658151368277192e-16 5.476532386420701" Properties=species:S:1:pos:R:3:momenta:R:3 pbc="T T T"
Si      10.76437785       6.00281906       5.14517162       0.50574702       1.83632878      -1.26092747
Si       0.21931610       3.97441028       2.63530565      -0.18953121      -5.39066610      -1.07023439
Si       0.84812318       9.39222977       3.62675986       5.54213496      -2.81196350       4.83491383
Si       7.85776479       8.21451077       4.06307220       3.75972157       1.80642342       0.71000370
Si       4.56921193       7.95046946       4.96955909       1.50002111       2.86151845       0.61793993
Si       9.61793587       1.53815991       1.67029304      -3.11243455      -0.72321378       4.89460753
Si       9.31345238       0.01649770       5.44070395      -3.02939335       5.42300459      -5.18287619
Si       3.12002406       8.74911498       3.30975027      -4.46539831       0.55461171      -5.51951960
Si       8.82140602       4.81896188       2.55353228       3.95018782      -2.86501065      -3.56641871
Si       0.14397113       7.60032596       1.42604334      -1.04722428      -2.46524787      -0.64019509
Si       0.61993697       2.42482016       4.35669983       0.72683270      -5.56809853       5.96783817
Si       5.20832470       3.44182842       3.73637708      -0.71494253      -5.15970907       2.03157760
Si       6.25373778       6.53798778       4.00453114      -0.76882440       2.00539987      -2.53983951
Si       0.38273058       9.74924040       0.38699021       3.89144822      -2.29905990      -0.97623211
Si       2.25585852       6.93366476       2.19431666       1.84207493       4.25732048       0.63633944
Si       9.67631855       6.95767019       3.26143847      -2.87194853      -1.10079599      -3.34827980
Si       0.46614896       0.65317588       2.88746295       5.04732601       3.47346196      -7.62521473
Si       5.30188843      10.20243165       0.14358367       3.83338383       1.36226855      -5.95740142
Si       2.07582303       0.39616716       1.24732549      -2.14130416       2.16764671       5.74622663
Si       3.97916375       6.09526212       0.91736553      -3.63321761       2.58616537       4.42363621
Si       2.76052925       2.02084220       5.18971569       6.89268237       3.24435615      -3.16059602
Si      10.15606850       3.63362366       0.45190850      -3.35892129      -6.65169457       2.24115088
Si       8.32225451       3.37243289       4.40320492      -3.57556754      -0.61899081       1.92035435
Si       8.30514645       1.09670129       3.56158928       0.26425835       0.69158681       0.59546881
Si       5.82670136       5.09551729       2.10261383       7.18556086      -0.60132381       6.26707563
Si       6.57868871       4.57698830       5.36087881      -2.64599709       7.18390068       3.82723285
Si       7.55146571       9.57346256       0.56667468      -1.63333202      -2.43793705      -0.66513247
Si       7.04284842      10.09120434       2.85038109      -9.52758326       0.28028065      -1.66987701
Si       1.65567214       5.39915169       3.81027922       1.86386151       1.43026096      -3.46814405
Si       4.09933604      10.56767110       2.18252228      -2.79874559       0.25770571       3.43695998
Si       3.36812663       4.32045441       4.96809204      -4.05546796      -0.33541009      -1.66574329
Si       4.64523752       1.02648196       4.02732583       2.76459240      -2.39311914       0.16530631
32
Lattice="10.953064772841406 2.0414019778866393e-15 2.391532347210215e-15 2.041341254603979e-15 10.953064772841403 9.315213603459425e-16 1.1956332070866667e-15 4.658151368277192e-16 5.476532386420701" Properties=species:S:1:pos:R:3:momenta:R:3 pbc="T T T"
Si       1.17614084       5.19748092       4.41906828      -2.16351082      -2.39619410       2.77251668
Si       0.94408405       3.98076104       2.46052509      -3.71685832       4.20930389       1.54673988
Si       0.89562976       9.55567107       2.53748274       5.20195759      -3.30641331       0.15312783
Si       8.63364113       7.58750704       2.67576064       0.76351545       1.71566291       1.69969393
Si       2.30621245       8.52780715       5.22949166      -4.27996719      -3.85309126      -2.16323396
Si       9.13823955       1.86142519       0.87045148       1.40454705       0.94404499      -0.96794028
Si       7.01838271      10.21898220       5.19928544       3.23761262       0.47473160       1.22553162
Si       2.80525630       6.95340808       1.51367835      -2.00280544      -2.85053568       4.38953629
Si       6.62450960       6.16699431       2.88239994       5.54345954       1.41294541       2.21973780
Si      10.04160470       8.87830616       1.01085047       0.74924783       7.25394752       2.55590525
Si      10.12804312       2.45105706       2.88640469      -2.27616789      -4.11307087       5.19427567
Si       5.50936219       1.45552658       2.50388616      -0.58773492      -0.17244544      -5.66030356
Si       4.89871796       7.63536236       2.28615091       1.01319843      -0.15080542       1.85758400
Si       1.99734947      10.71735074       0.79352150      -1.17946109       0.82403779      -2.16833567
Si      10.38735985       5.98239135       2.04039559      -0.88349247       1.02385457      -1.61067740
Si       9.21375018       7.29527652       4.92547475      -0.79581025       5.65479777       3.67811986
Si      10.42718945       0.16346487       3.49337459       0.58732327      -0.27741121      -5.02813306
Si       4.32846952       8.92923474       4.13810993       0.10795364       2.09394652      -0.26030939
Si      10.68454744       0.17032485       0.28117374       2.27550369       0.95419830      -1.53344632
Si       6.55587614       4.48663030       1.19715605       1.26452442      -3.23265931      -1.32558054
Si       4.57209409       3.60709888       0.09502252       3.01781199       2.81988248      -3.21721071
Si       9.97257821       5.15182000       5.31648004      -2.01458084      -0.98911746       1.39507199
Si       8.59921350       3.32639369       4.55228589      -1.68901977       1.37984566       2.32332351
Si       7.45301503       0.45680723       1.64126649       4.83478614      -5.85495525       2.20900999
Si       6.21036176       3.47473171       3.63080296      -0.05005969       1.19143663      -0.66811932
Si       7.03942521       6.33867682       5.19636498       0.63935538      -1.10415353      -1.67836252
Si       5.88257689       8.27426326       0.28551399      -4.28067038      -1.00391989      -5.38341179
Si       8.36533115       9.99859948       3.26445800      -0.29710961      -4.43251888       0.69397279
Si       1.33492808       7.34381563       3.32160701      -3.20068976       4.29177506      -3.53240913
Si       5.02149919       0.18919554       4.39118044       1.60401077       1.83532625       1.87406801
Si       2.54964313       4.72266866       0.76952011       1.04833615      -1.59039541       0.18108109
Si       3.95175150       1.32524655       0.68925928      -3.87520551      -2.75205034      -0.77182257
32
Lattice="10.953064772841406 2.0414019778866393e-15 2.391532347210215e-15 2.041341254603979e-15 10.953064772841403 9.315213603459425e-16 1.1956332070866667e-15 4.658151368277192e-16 5.476532386420701" Properties=species:S:1:pos:R:3:momenta:R:3 pbc="T T T"
Si       0.40622993       5.35904924       2.79884889      -1.22411000      -0.96448780       0.15754496
Si       4.06860093       2.56984323       2.62893507      -3.95143122      -0.79523160       3.71900162
Si       9.91687518       9.27614995       2.90167868       0.04142063      -2.55873699       2.83546141
Si       8.04274342       8.42791436       4.23800513      -4.44382232      -1.70902885      -4.17594640
Si       1.82407151       8.34102409       5.21620436      -1.58560390       6.48666079       2.71936476
Si       8.39323989       1.33419769       0.31521852      -1.49277395      -2.08406288       1.07459580
Si       6.46390933      10.93430606       5.45304889       2.57549606      -0.12009715      -2.49602411
Si       3.15172483       7.35511188       1.53000665      -6.68068854       1.98607339       1.65371583
Si       7.42767014       6.41893382       2.95105351      -0.06116633       3.92317164       2.41642983
Si       9.65410092       6.94797084       2.22248603       2.58098047      -1.02438554       3.82802953
Si       1.40250285       3.05409114       5.47187712       4.75071242      -5.49678916      -6.26904759
Si       5.93681165       1.24476635       2.21206287       1.89861476       0.20733870      -1.50059461
Si       3.61216420       7.90172162       3.78232537       1.44318945      -0.78625898       0.86900122
Si       0.41861537      10.11508773       4.62081374       1.47986870      -3.80229395       2.73618908
Si       1.98226142       5.25230925       1.07813183      -0.67825380      -1.54546677       0.20547077
Si       9.45678768       6.77941296       5.39633306      -1.30632598       3.95611454      -8.02717984
Si       0.75878495       1.60349628       1.77197312       0.24265017       4.67812758      -1.84640966
Si       3.90690726      10.17239843       3.56552104       4.13527708      -0.22352254       0.19020522
Si      10.17122548      10.88563440       1.07399978      -0.28763978      -2.58885867       0.25225110
Si       5.06663032       7.22337400       0.14567663       1.52943756       0.07637626       2.77844357
Si       3.66160956       2.73208709       4.89225966      -2.93560405      -0.79683422       0.24483804
Si       0.08287070       3.12419317       3.51278245       9.12654820       0.50832457       3.00561821
Si       8.77421189       2.95206700       4.08642935      -0.03753076      -3.66365647       3.39582083
Si       7.64005799       2.78477219       2.02987680      -0.74882370      -1.96332321       9.87999881
Si       6.61281127       4.87659122       1.25617805      -2.06047164       2.84459346      -2.54043681
Si       7.96683237       5.05751618       4.80653254      -1.01035478      -0.15775925       2.43243510
Si       6.71025530       8.79033596       0.95680687      -1.43443784      -1.92033421      -0.53984106
Si       6.23506815      10.07383863       3.13549439      -1.49700980       4.69886507      -1.39468472
Si       0.74966250       6.33944441       4.86107697      -2.85176991      -1.69967140       1.67491137
Si       2.87973456       0.61447155       1.99181715      -1.90837561       5.77885646      -6.49864827
Si       4.28469430       4.30687960       1.04389759       3.74697511      -1.16714755      -7.89452068
Si       4.14792395       0.52835443       0.02758397       2.64502332      -0.07655531      -2.88599333
32
Lattice="10.953064772841406 2.0414019778866393e-15 2.391532347210215e-15 2.041341254603979e-15 10.953064772841403 9.315213603459425e-16 1.1956332070866667e-15 4.658151368277192e-16 5.476532386420701" Properties=species:S:1:pos:R:3:momenta:R:3 pbc="T T T"
Si       0.75557523       3.90357573       2.41084117       0.70281014      -3.95120412       3.16086680
Si       3.86878179       3.23817740       1.80111778       2.01267949       2.66949517       3.53544002
Si       0.48696834       7.84192462       3.28714765       0.84068557      -1.98094237      -0.79328737
Si       9.00531571       7.25625722       1.14177441       0.37266371      -4.69694191      -0.84362783
Si       3.45223292       7.19379454       0.30870273       3.64905307       0.24088516       2.82259781
Si      10.28721729       1.07487020       5.04929481      -1.52496051      -2.00514575      -2.67142011
Si       6.81853128       9.56985463       0.25891445       3.44768342       2.86776352      -0.53175160
Si       2.69424361       9.41005589       0.72519634      -3.41552645       5.22073192       9.14617607
Si       6.26483117       7.30920422       2.87077289       3.50668692       1.10003215      -0.15435404
Si       0.49663093       9.34154459       1.46147954      -1.07496948       1.66026117       2.51215655
Si       1.63595263       1.66635529       4.65495701       5.98126178       2.59827591       2.15508616
Si       6.03332400       2.25006742       1.89808851       0.93913132       0.13707653      -3.44466658
Si       4.18353957       8.21893546       2.34828014      -4.55306094      -7.30733140       1.17862972
Si      10.16724083       8.62846284       5.10188095       0.35467651      -0.34106848      -3.52109875
Si       1.35977958       5.48317803       0.76278272       2.49927823       2.26968394       1.48093632
Si       9.67628490       6.35657320       3.18013532       0.21945864       0.35637056       1.54067469
Si       1.82959121       1.78619819       2.28059316      -3.56523702       2.04749492       1.42618983
Si       3.42045740       0.12936169       4.75607105       5.45572500      -2.32059577       5.07216460
Si      10.72384351       0.57714907       1.87063676       0.63491834       3.56240015       2.48565529
Si       5.79196231       7.39151345       5.15308550      -4.86030767      -2.46593260      -3.23680648
Si       2.61452341       3.69431249       5.34852658      -2.92987603       0.26368601      -1.53066346
Si       9.42546572       4.05315910       2.92783035      -0.78565134      -0.61483561       0.45253543
Si       8.67452480       2.78082170       4.73698599      -4.32059521       4.54296244      -1.94143950
Si       6.97904742       1.35625762       3.90129404       1.20256099      -1.87993121       1.32036889
Si       7.77140633       3.75426290       1.21371783      -1.55635613      -3.26688870      -6.75108878
Si       7.03482581       5.98800527       1.05882867      -2.98963937       7.87257979      -4.03058644
Si       7.82751078       8.96436733       2.28582469      -1.31430016      -1.58881454      -1.96470435
Si       8.54546016      10.22824285       4.16917953       1.27454544      -0.08907675      -5.77367770
Si       2.64993579       7.03690698       3.59297854      -2.81486799      -2.38987398      -2.28418955
Si       3.87547970      10.57445489       2.46267622       3.98231651      -2.36851801       1.14596905
Si       2.84531100       4.73362076       3.27598256      -1.59513679      -1.02989072      -1.87327162
Si       5.56485944       0.63281440       0.20282580       0.22434999       0.88729259       1.91118693
32
Lattice="10.953064772841406 2.0414019778866393e-15 2.391532347210215e-15 2.041341254603979e-15 10.953064772841403 9.315213603459425e-16 1.1956332070866667e-15 4.658151368277192e-16 5.476532386420701" Properties=species:S:1:pos:R:3:momenta:R:3 pbc="T T T"
Si       0.52360046       5.20555508       4.31424778       0.89166474      -2.79467262      -2.36006689
Si       2.00900877       4.52781693       0.57666750       6.51594105      -3.50525134       5.26027015
Si       0.11408404       9.04560150       3.20082697       0.16543838       0.58511300      -1.61326056
Si       8.47794441       7.42107946       3.31150786       1.50004099      -0.54018626      -2.69508767
Si       3.71323561       9.44636353       4.85559220      -5.62057869       2.13396049       1.86645530
Si       9.39840620       0.45995229       0.56337594       0.97993987     -10.68261216      -0.96796791
Si       7.72092837       9.92603867       5.33385042      -2.71553500       1.24664676      -2.19662095
Si       4.23860849       7.68810619       3.39701683       0.13973717       1.45023749       1.32024968
Si       6.30312056       6.73736723       4.07172643      -1.63595999       4.71103951       3.93359045
Si       0.67966027       8.18594187       1.06341432       1.74267943      -0.20191221       1.96221744
Si       1.25159374       1.25136559       5.31199352       5.45615417       0.20525396      -0.16266950
Si       6.88147503       3.07616066       3.24181228       4.50991014      -2.20702014       0.99515141
Si       4.81114028       8.73488233       1.36539205      -4.71347262      -3.80526493      -2.64929387
Si       1.41721169       9.83360248       5.05080236      -1.69899439      -1.61224720      -2.97120985
Si       2.54462353       6.71624875       1.18860951      -4.34284124      -2.06590309      -0.00184823
Si      10.09069171       6.95525103       5.09567809      -1.59208942      -4.62337902      -3.78919228
Si       1.46847577       2.60924896       1.79898593       3.34368250      -1.31260839       0.38476127
Si       4.63659386       0.52524558       3.98932570      -1.92171891       0.30220154      -1.69255726
Si       9.79258166      10.95090563       2.76833627      -3.23156933       3.91014688       4.12728660
Si       5.94581642       4.54601205       4.82224211      -0.71634120       4.93833317      -0.46751677
Si       2.85118894       2.06214495       3.69254689       2.04484434       6.44763373      -0.35470552
Si      10.45959353       3.63074213       2.78590444       0.68319807      -3.92747679      -1.92601115
Si       8.12371683       2.39631611       5.24413665      -3.75965560       0.65648857       2.72081037
Si      10.19820805       1.77613607       4.20921868       2.34224983       3.82955728      -4.13748822
Si       7.49422081       4.14872469       1.20416780       3.83294087       2.46521893      -2.41717074
Si       8.50006477       6.30534309       1.26574251      -3.91055479      -5.91071010       6.23149613
Si       6.82339308       7.84850721       0.56449529       3.09607456       4.16293996       2.47332834
Si       7.84476335       9.73503532       3.04072866       3.51571925       4.20006013      -4.60134329
Si       2.61528852       5.92370777       3.36835288      -2.13410306      -5.77601494       2.02905629
Si       5.85209205      10.71147064       2.15724091      -2.39035331       2.24830957       4.85701308
Si       3.65971683       4.12129231       4.45745476      -2.46742411       2.41270237      -0.70411791
Si       6.31960698       0.87517861       0.14007496       2.09097630       3.05941582      -2.45355793
32
Lattice="10.953064772841406 2.0414019778866393e-15 2.391532347210215e-15 2.041341254603979e-15 10.953064772841403 9.315213603459425e-16 1.1956332070866667e-15 4.658151368277192e-16 5.476532386420701" Properties=species:S:1:pos:R:3:momenta:R:3 pbc="T T T"
Si      10.66623992       4.78934905       2.85153822      -2.37392379       4.75649178       1.66936620
Si       1.90136871       2.91898956       0.15821884      -3.09795449       1.25960992      -3.96662971
Si       9.95163089       8.75817425       2.19038736       0.80809798      -1.39463360       2.39900311
Si       8.12990745       6.78513793       4.92644880       6.36006175       0.48502699       0.68676356
Si       4.40599836       8.09035310       4.19870923       4.90813082       0.86295180       4.57751648
Si       8.65682503       0.90035025       0.21848285      -2.82537379       5.75263419       0.69007583
Si       7.04189055      10.49707506       4.66289984       1.06619387      -2.74868936       1.05389098
Si       2.44881795      10.19054298       0.95622792      -4.22022106      -3.47774030      -1.54827882
Si       8.31049365       5.27049457       3.12946624       1.61658102      -3.30438212      10.36407204
Si      10.28569636       7.23248297       0.25405963      -0.43396900       2.66830805      -2.17715909
Si       0.49956490       2.79018010       3.71468346      -4.66422504      -5.48930495      -4.03736430
Si       7.46622118       3.10943244       3.58373533       2.77806762      -1.44449142       1.53643171
Si       5.93778978       8.06679773       2.34854332       0.89309474       1.81979465       3.31663393
Si       2.44985148       9.43796020       4.14082519      -0.24233803      -7.23609569       1.53711219
Si       1.69731958       6.05180375       2.82649672       4.26966811      -5.15400215      -4.44144647
Si       0.60100548       7.98456839       3.74422629      -3.80179950       0.32573880       1.38637499
Si       1.20091201       1.40535627       1.84721579       2.01818498       0.39891902       2.85963716
Si       5.92334129       1.19402278       3.30498492       0.71020772       0.35985352      -2.26797855
Si      10.11161679       0.17379671       1.87711640       0.29851718       0.38912240      -1.93020341
Si       2.85784062       5.00604269       0.97501635      -1.58132497       1.81272147       0.50497678
Si       3.99959780       1.89108582       4.84938350      -2.51864806       4.42514487      -5.88191485
Si      10.22217065       4.63784563       0.53001659       3.79432651      -2.30000399       2.32201160
Si       8.05621666       3.20562196       0.47589671      -1.10224719      -3.75555057      -0.00019072
Si       9.43512754       1.61851684       3.64248977      -1.04847031       2.89967597      -6.43035765
Si       5.21866583       4.35149340       1.21127144      -0.87784509      -0.59356718      -0.98083179
Si       6.84460783       6.10340931       1.40270124       2.91588298       3.94911266      -4.59952614
Si       5.41535875       9.40124273       0.50824564       5.14159134       7.44524678       0.56684470
Si       7.90244414       8.65420083       3.47423854       0.62338651      -2.85501953       3.09004176
Si       3.47931299       5.89008570       4.37447177      -6.51575286       2.12717271      -0.03660117
Si       2.98145769       0.54436334       3.11161986       0.39751275      -3.37459431       0.39847082
Si       5.05483597       3.99602639       4.23402080      -7.96601245      -1.35834152       2.00642062
Si       4.55959157       0.52441245       1.29823277       4.67059975       2.74889112      -2.66716182
32
Lattice="10.953064772841406 2.0414019778866393e-15 2.391532347210215e-15 2.041341254603979e-15 10.953064772841403 9.315213603459425e-16 1.1956332070866667e-15 4.658151368277192e-16 5.476532386420701" Properties=species:S:1:pos:R:3:momenta:R:3 pbc="T T T"
Si       9.87894302       2.25858501       4.02777466       3.34679072      -5.62923638      -2.04641147
Si       3.81535044       2.93948824       2.88272715       5.31720546      -2.16756635       3.30471416
Si      10.68032736       9.35631670       4.30986716      -2.78831045      -1.03048846      -5.84611674
Si       8.13672475       5.99341289       3.52787627       3.49628710       2.65485890       0.15404726
Si       4.81800576       7.83887399       4.73296588       4.79631724       0.07417794      -0.87379608
Si       7.84531592       0.98733398       1.07347658      -3.56584807       0.00285703      -2.03917065
Si       6.20392605       9.72195245       5.03874311      -5.79334666       4.03398681       0.24831521
Si       3.05811796       7.92297595       0.81081700      -4.22583060       1.82733723       2.73114344
Si       8.00322646       7.13222869       1.48131434      -1.06112208       1.29804573       1.01552072
Si      10.44865483       7.20037235       1.48307638       4.40686096       0.95032196       0.15821643
Si       2.22728223       2.61394448       4.64559174       4.16997417      -1.23803078      -2.88327914
Si       8.08592187       3.63133277       3.30488576       1.71499171       2.04809310      -2.80745797
Si       4.46166796       8.51631805       2.56081424      -0.00149619       0.61800710       1.05516366
Si       0.96253704       9.05064990       0.79746653      -0.82667733      -0.53166558       0.60523568
Si       0.32003302       5.56087121       0.00665327      -4.75714477      -0.80488627       2.59261874
Si      10.27829431       6.96043321       3.81481591       2.99138537       2.59158488       3.33003245
Si       0.64431331       1.95931811       2.44069097      -2.45814736       3.13121856       3.66465306
Si       5.73850048       0.98151443       0.01439550      -0.02268069       2.77519245       0.57646610
Si       0.99655987      10.50377539       2.62621281       1.50314907      -1.27997057       0.42496466
Si       5.95614738       4.17623024       0.29213016      -0.25964848      -0.41703890      -1.17004925
Si       2.65044628       0.39462985       5.33193776       3.45496242       2.31626372       1.12162640
Si       0.12814138       3.20567676       0.34207171       0.03860595      -1.23274109      -0.67901212
Si       8.09709362       3.30715285       1.01061842      -1.18727272      -4.60713867      -0.79889230
Si       9.08762065       0.12664248       4.69491719      -0.94047565      -1.07500951       0.01396020
Si       5.93698687       2.75075077       3.90825472       8.20610361      -1.35753134       3.22228584
Si       6.59074053       6.34588871       5.23073335      -0.32972314       3.33324908      -1.39637507
Si       6.66628463       9.02345960       1.78740574      -7.29575620       2.14898949       0.68606671
Si       7.40955096      10.78040888       3.12011611       5.39592103      -5.31080596      -0.17923384
Si       2.60206265       5.83491486       0.03983002      -7.86259123      -1.53840122      -2.86161064
Si       3.29483915      10.43064963       3.25089917      -2.49712237       1.18348742      -1.60344844
Si       3.66548898       3.95874579       0.79782673      -4.18695528       0.52854205      -1.07558555
Si       4.07154889       0.95943178       1.63496500       1.22159446      -3.29570236       1.35540855
32
Lattice="10.953064772841406 2.0414019778866393e-15 2.391532347210215e-15 2.041341254603979e-15 10.953064772841403 9.315213603459425e-16 1.1956332070866667e-15 4.658151368277192e-16 5.476532386420701" Properties=species:S:1:pos:R:3:momenta:R:3 pbc="T T T"
Si       0.42192447       6.71780633       2.82400765      -1.84393741       1.97647917       0.46947084
Si       1.71260022       2.88813664       1.42242457       1.33503140       2.71877067       0.33414809
Si       0.82189451       8.77197711       3.84114434       3.21505817       0.30540698      -3.27029776
Si       8.28987191       4.82925636       3.62536864       1.01044341      -4.22068910       1.23916348
Si       2.83689403       8.14930761       4.87059375       0.30261953      -0.17495782       3.52127110
Si       8.94993807       1.12177810       2.37617965      -1.86292634       2.35766160       2.82456886
Si       6.55841066       7.43754440       4.10576572       4.35107677      -2.83580620      -0.20246551
Si       3.13409275       9.95078680       0.84960236      -3.20945197      -4.23520921       3.47074935
Si       7.65217388       6.75900179       1.81005105      -0.97947592       1.64208192      -2.63814894
Si       9.90895467       7.01957674       0.99726171       4.39973593       1.27940206       3.31701222
Si       1.68516831       2.02087647       4.37492419       0.36502692       4.46022367      -3.86874524
Si       7.79694809       3.15402538       1.97867549       0.20991625       0.27048140      -5.17213511
Si       4.39778879       7.72821955       3.24244691      -5.22456447      -0.85069120      -1.94467390
Si      10.48965314       9.22473555       0.31021712       0.15929146      -3.79600680      -1.70475982
Si       2.74880911       6.14610758       2.39817282       1.80014952       3.30396346      -6.18263099
Si      10.28815328       5.60781998       4.58150578      -3.91770826       1.46038085       1.18371395
Si       0.37453476       1.32377426       2.54920688      -5.72289862      -0.66963343       2.63994738
Si       5.48215752       0.51757488       3.55634743      -1.45900416      -5.59542582      -4.74294809
Si       1.03231267      10.11869439       1.92487790       3.64080531       4.81664283       3.91647723
Si       4.79778085       4.11533589       4.72889990       1.72894629       0.44193941       4.75626320
Si       4.04802244       2.66040937       0.93722310       4.02074429      -0.48597871       1.20112119
Si       1.16629172       4.29933965       5.13128655      -3.29932040      -0.27381663       4.33424531
Si       7.49646809       3.15138397       5.14781261       0.39672901       1.36616825      -1.11328299
Si       7.69298457       0.88661677       4.35644620       6.56568471      -5.56063499      -0.59872668
Si       5.52980068       2.73700029       2.74208732      -3.84734605       3.15819484       1.16105700
Si       6.66222600       5.46916755       5.38374063      -3.42767565      -0.66313187       2.26319098
Si       6.86651653       8.79246140       0.75224044      -7.23488093       1.72682897      -0.08734193
Si       8.51158185      10.49075046       0.61308350       1.72315353      -1.14654881       3.82880505
Si       2.95860969       5.85791704       0.09595836       1.60900904      -1.55459864      -2.20311651
Si       5.06808350       9.63704088       2.07727397       3.92402223       1.85744811      -0.80125296
Si       2.76713771       3.99810972       3.35014195      -1.56110537       2.93271347      -3.20871333
Si       3.65980535       0.84174705       5.01996759       2.83285176      -4.01165843      -2.72196546
32
Lattice="10.953064772841406 2.0414019778866393e-15 2.391532347210215e-15 2.041341254603979e-15 10.953064772841403 9.315213603459425e-16 1.1956332070866667e-15 4.658151368277192e-16 5.476532386420701" Properties=species:S:1:pos:R:3:momenta:R:3 pbc="T T T"
Si       0.30308425       5.56524531       4.28876276      -1.38721789       6.82761135       1.03450313
Si       3.11514625       3.16814352       3.09054058      -3.38408874       5.58281321      -0.26203424
Si       0.36710547       9.52184509       2.60313229       1.40611262      -4.59293206       2.88552928
Si       8.97491820       5.75627677       3.72262238       2.82557021      -1.09005643      -0.71334871
Si       1.59838785       7.31804348       5.27672451      -2.24061581       1.14022606      -3.25203604
Si       9.15723375       1.62192179       2.66532461       1.09079982      -0.33081635      -1.31499339
Si       6.16876449       7.90745317       4.37712692      -2.07688587      -0.63403815       0.86401762
Si       2.34348483       8.53259910       3.37865866      -2.10075232       4.75835877       2.15042329
Si       8.78571514       7.22947343       1.82078775       1.65912148       0.91097089       3.21907074
Si      10.60487317       8.28945415       0.77217081       0.94175844      -4.24094512      -3.58380968
Si       0.58457805       1.80024904       0.10089183      -2.15391541      -5.72547253      -0.88299612
Si       8.08484022       3.72407069       2.98103242      -2.75131585      -2.68119612       1.67347264
Si       5.37035830       6.55517310       2.43456419       0.10345326      -1.84402278      -0.06931535
Si       9.43125337       0.88965621       4.90161482      -1.17072615       2.51495121      -5.55338844
Si       1.70424769       4.92957614       2.51029042      -0.30288999       1.76366393       1.51563102
Si       9.82951893       9.57054553       4.43569796       2.46934631      -4.34612034       1.03213710
Si       2.06615131       1.25753514       3.83717762       0.56955937       0.41516209      -0.69491733
Si       5.36014803      10.09424251       5.24612606      -0.00889955       1.51791039       1.41996190
Si       0.43840644       0.85749985       2.20518132      -2.09559855      -0.08031392      -3.49835609
Si       3.05889367       6.80994523       1.90137516       3.81543686      -5.49430566      -1.22298563
Si       4.66879445       2.58188480       1.48501317       2.58383928      -2.73551315       0.91759415
Si       0.77561258       4.09506262       0.53487134       3.46240489      -8.93596217      -1.89353624
Si       6.70378894       3.16387474       4.78363271      -1.36070729       0.08367405       2.66251209
Si       7.04606615       0.83044283       4.85877074      -3.00825689       3.85235450      -0.36646241
Si       6.52388506       4.39455109       1.36026247      -0.63498532      -0.79464388      -3.47788603
Si       7.45495942       6.32509396       0.12543214      -1.22552386       1.36882381       1.67344325
Si       7.29511023       0.13388783       2.57574642       6.49398124       1.92777492      -0.33069745
Si       7.93973012       8.91759294       3.21106000       2.70273908      -3.69298153       3.24759308
Si       2.87698738       5.26638355       0.10441649      -1.20434627       4.59709439       1.01213260
Si       3.67851726      10.46176077       3.64696336      -2.58318424       4.78648931       2.10745056
Si       4.43387337       3.65608407       4.90843364      -1.49212372       2.63032615      -2.14394519
Si       5.06315545       0.24564676       1.83053054       1.05791089       2.54111516       1.84523589
32
Lattice="10.953064772841406 2.0414019778866393e-15 2.391532347210215e-15 2.041341254603979e-15 10.953064772841403 9.315213603459425e-16 1.1956332070866667e-15 4.658151368277192e-16 5.476532386420701" Properties=species:S:1:pos:R:3:momenta:R:3 pbc="T T T"
Si       0.96336530       6.07057779       4.62522074       1.50576298      -1.83143333      -0.43134101
Si       3.17545802       4.56839602       1.56714152       1.56345755       2.41300083      -2.73548245
Si       9.73068290       8.82706105       2.91124595       0.26132379       4.26060116       1.34129982
Si       7.91877695       5.95472455       4.18812060      -1.39894262       3.35035011      -1.65875526
Si       3.78847195       8.00686802       0.37790871       3.35065669       5.93042221      -2.57016217
Si       9.59825225       1.34074594       4.63935128       2.97864378      -0.95884592       2.67122515
Si       7.22510053       9.56921112       0.00766635       1.96926435       1.97539995       5.69577243
Si       4.19909748       7.90947687       3.53209515       1.86446653       0.78158193      -3.92315075
Si       6.69563470       5.13478416       2.36652895      -2.66068716      -3.93742941      -3.50628000
Si       0.15932648       9.43076907       1.12853848       0.36636905       2.46391805       0.29069523
Si       0.96526766       1.87479066       4.90745540       3.67754060       1.98403446      -5.97706412
Si       6.10957576       2.93646941       0.32970778       0.47071295       2.56000248       2.16394043
Si       6.52769389       7.82780800       4.05704986      -4.96038941       3.61183591       1.74880850
Si       9.51482906       9.96095277       4.94903296       0.81145726      -2.61963776      -1.75682273
Si      10.45561907       5.13820296       1.47337967       0.22510405       1.23024229       5.74628848
Si      10.02783491       6.51515219       3.33617216       1.01534363       0.67589526       0.14147002
Si       2.42649290       1.11801787       3.16370201      -5.34424965      -3.83440056       0.03119477
Si       3.72348545      10.36522362       0.45625977      -5.67415855       2.61994388      -4.12273099
Si       1.63066419       0.31864122       1.11018011       0.52987669      -1.46265518       3.42535206
Si       4.77800000       6.33080257       1.68548147      -1.26119734      -1.36771100       1.17171130
Si       4.05564522       2.63209853       2.48324360       1.39799109      -4.26895735      -0.15675933
Si       1.25390020       4.07163886       0.31102737       0.81176396      -1.71870809       0.09793241
Si       8.35821783       2.43553993       0.81181228      -0.28255175      -1.93824244       7.34913850
Si       7.93362814       1.79952575       3.01973639      -4.87048946       1.54729093       4.49677678
Si       6.06591014       3.19930179       3.51607757       1.14773370       0.01320538       1.60589475
Si       8.30319333       4.78331572       0.69700002      -2.88936857       3.36571472      -3.15540424
Si       7.47392296       9.04911920       2.27553638       1.51966588      -3.06173308       2.48774094
Si       6.39165633       0.00144499       3.10396389       0.10811339      -0.41802624      -3.06035225
Si       1.53460980       7.52858334       0.87701901       0.82397807      -2.96957102       0.63485452
Si       4.06721642      10.34521039       3.61228020       2.70898575      -6.37701819       0.55087241
Si       2.41949386       6.43551438       2.82311127      -3.46130715      -1.28942206      -6.55887549
Si       5.28963090       0.94431126       1.20229205       3.69512993      -0.72964791      -2.03778772
32
Lattice="10.953064772841406 2.0414019778866393e-15 2.391532347210215e-15 2.041341254603979e-15 10.953064772841403 9.315213603459425e-16 1.1956332070866667e-15 4.658151368277192e-16 5.476532386420701" Properties=species:S:1:pos:R:3:momenta:R:3 pbc="T T T"
Si       0.47867680       6.19531452       4.07908992       0.42596780      -4.82634462       0.94678538
Si       3.64788358       1.71638130       0.95918089      -0.64077198       0.05880084       1.64130172
Si      10.19449551       7.46775844       2.48313993      -4.93123945       4.89076889       0.16327638
Si       6.86334545       6.55483438       0.12519921       1.41450304      -0.63818196      -2.75978983
Si       3.56892939       9.29658486       4.09467098       1.06999120       0.46856869      -4.79132957
Si       9.56771228       0.35859470       3.18996715      -0.68599079      -1.69237433       1.01485466
Si       8.36313379       8.36946620       5.22305896       4.47671274      -1.41649683       2.00165301
Si       2.54020667       7.56011402       1.39139751      -2.32237821       1.04626357      -0.06567209
Si       5.80382039       5.53161605       3.67651511      -0.71412208       3.01168396       1.44443230
Si       0.79131960       9.09353937       1.82406451       6.26107339      -2.66262613       1.07291912
Si       1.57464305      10.41921430       3.64502592      -0.08572925       0.23602595       4.58267126
Si       5.85009827       2.48775247       1.42418433       0.84024066       2.66797838      -3.93785005
Si       6.20622961       7.32463092       2.20595171       3.25094289       1.80323976       4.68447816
Si      10.90975719      10.51777586       0.05585630       5.83731145      -4.57353604       1.36342797
Si       1.85559715       5.40144723       2.06705198       0.82595909      -4.68076834       1.97833770
Si       9.71076325       6.55705135       0.39270525      -2.77602042      -0.46439410      -0.21980688
Si       2.09064058       1.60200113       2.75272928      -2.49272063      -1.24152014       0.67197470
Si       4.65364879      10.55108975       0.32814527       3.40642826       3.20982615      -3.26085519
Si      10.94981516       1.41615701       1.62975489       0.87113332       1.52087635      -5.94156401
Si       6.66690659       4.09739146       5.39629850      -0.83676731      -3.89006478      -1.76757306
Si       2.67645857       2.98773638       4.61645898      -1.28432098       3.00998626      -1.69739586
Si       0.89024500       4.25075309       0.02654915      -1.92276947       2.21653311       1.32338018
Si       9.86760994       3.01948968       0.35656960       1.27553993       2.82638364      -1.06526222
Si       8.29649447       1.95190929       4.33485211      -2.68993234      -0.46743741       7.40283649
Si       7.16316850       3.62638045       3.02523521      -2.52566915       0.38449059      -4.87043316
Si       8.50024821       4.65916995       1.30259615       1.59461026       2.77038547      -1.24893860
Si       8.46981775      10.20188031       1.33240625      -1.25589102       1.27951080       5.95629742
Si       8.12270201       8.49132374       2.92148482      -2.64176721      -1.91191004      -0.75228128
Si       2.62049842       7.13593819       4.60275445       0.33120775      -3.35256261      -2.66943834
Si       4.43876398       8.83992054       1.98247861      -2.44784141       1.42895019      -7.05198228
Si       3.51434429       5.05771287       3.76314080      -4.49905082      -2.63997212       2.37930002
Si       6.86574514       0.63641494       0.33682523       2.87136072       1.62791685       3.47224592
32
Lattice="10.953064772841406 2.0414019778866393e-15 2.391532347210215e-15 2.041341254603979e-15 10.953064772841403 9.315213603459425e-16 1.1956332070866667e-15 4.658151368277192e-16 5.476532386420701" Properties=species:S:1:pos:R:3:momenta:R:3 pbc="T T T"
Si       0.34082646       7.59199787       3.29899826      -2.26920980       1.93190528      -2.45140021
Si       2.23790225       2.49262388       3.06613705      -0.46132054      -1.87358962       3.19386456
Si       9.24855406       8.30089285       2.43543022      -2.64149882      -6.21185568       0.54492093
Si       8.54397242       6.25245041       3.27000913      -0.77935843      -1.15648098      -0.58030310
Si       2.26476646       7.48475113       1.05524290      -3.71285776       1.25394349       3.64953137
Si       9.94132604       0.99535043       1.41968570       1.98221535       0.98757873      -3.35815090
Si       7.83398869      10.94711211       0.69657067       4.11425119       7.60958653       2.01378768
Si       3.39859823       8.12545017       2.99763061       7.46891534      -0.68040198      -4.90115647
Si       6.25653324       6.27510645       3.63638808       1.05945713       2.62178815       1.02120751
Si       9.75535260       8.60726159       0.21014543       0.06125377      -1.13384945      -2.43921301
Si       9.77180426       0.88605248       3.75024687      -2.35028212      -5.34092663       1.69400904
Si       5.11283279       2.44089056       1.48434868       4.62308008      -3.17264329      -0.77744855
Si       5.57809611       8.00495376       2.15226289      -0.60402069      -1.00198534       0.31958462
Si       1.04329242       9.32195540       0.16259676      -0.61450873       0.30315469      -1.64471839
Si       1.17511166       5.73199432       2.14443544       0.13532909      -1.35055580      -1.69725794
Si      10.06545522       6.42741292       4.97496962      -0.86308392      -0.62970865       5.71720162
Si       3.29401594       0.84358934       4.34528688       0.84993548       1.81462470       2.50430155
Si       5.40677283       0.96164599       3.32578693      -1.55854169       3.93469417       0.66152664
Si       1.22838411       0.20327898       1.64217365       1.40343649       3.96914366       5.99145465
Si       5.48859630       6.31485433       0.36444572      -1.08866319      -0.65978092      -1.74596930
Si       2.81220562       2.12854455       0.82406534       3.12363439      -2.26315285       0.07387706
Si       0.41628533       4.65811900       0.24402299       0.40626510      -0.32201272       6.04476086
Si       9.64129514       3.21526939       0.73923229      -0.36080452       4.62518086       3.00006000
Si       8.43329864       2.76879399       4.27272946       3.22130862       1.40912431      -6.18692441
Si       5.98595255       4.57899159       1.90118239      -4.55807978      -1.23796998      -3.35837185
Si       8.26977911       4.14717258       2.36988095      -6.60323927      -5.24346235      -1.76440737
Si       6.67797752      10.05680727       2.56284624      -0.77192420       0.54955776       0.64807463
Si       8.51664027       9.88803656       4.11180173      -2.50359015      -1.94048298      -2.86035292
Si       3.38322268       6.47173358       4.75613758       6.57066408       1.30923089      -2.08973292
Si       2.03232725       9.95619512       3.59499096      -1.54027224      -1.76539180      -1.06281423
Si       2.04580780       4.61639184       4.00907602      -0.37467811       0.71378763       2.23241281
Si       6.55968062       1.72859956       5.20311388      -1.36381215       2.95095016      -2.39235396
32
Lattice="10.953064772841406 2.0414019778866393e-15 2.391532347210215e-15 2.041341254603979e-15 10.953064772841403 9.315213603459425e-16 1.1956332070866667e-15 4.658151368277192e-16 5.476532386420701" Properties=species:S:1:pos:R:3:momenta:R:3 pbc="T T T"
Si       9.95377951       5.24952212       2.76205174      -1.00985975      -1.00714933      -4.77838790
Si       2.45571575       3.20492450       3.52759579       0.63730943       2.40354064       2.35142267
Si       1.51062243       9.13731364       3.13224459      -1.13382552      -2.54328050      -1.44510194
Si       7.61402954       6.57553263       5.40413133       4.76569058      -2.89561870      -1.30681974
Si       3.06822840       7.72206552       4.22695348       2.58304961       1.31540505      -0.05961513
Si       8.65973957       0.78674531       1.52933117       7.94310697      -1.45916381      -4.99339643
Si       7.58733687      10.85772762       5.14217942       0.17342102      -1.13323937       0.43976078
Si       3.36132710      10.45051196       1.24922442      -1.54479587      -2.87816693       1.01244977
Si       6.30277019       5.69397495       3.54054012      -5.28491698       0.79170002      -1.43025216
Si       1.03194807       9.85241607       0.88945575      -1.94644561      -2.53566075       3.18610286
Si       0.00800415       1.07668025       3.90440251      -2.64944214       0.27720281      -4.72213257
Si       7.04324154       2.49478066       1.95763826      -2.70353046      -3.52250536       1.21412309
Si       5.00019136       8.84718896       1.92527900       6.59028572       6.71352412       3.16807566
Si      10.63805330       8.87058802       4.51422426       3.91580284       2.44418875      -2.22899182
Si       0.36596670       5.65903679       0.87599248       3.72130773      -0.99456964      -1.17547890
Si       9.89834169       6.64350169       4.70161958      -5.27992648      -5.37552242      -2.33947654
Si       2.30338396       0.57911666       3.28503402      -4.06044902       7.36714302      -0.10976006
Si       4.91828441       9.19441487       4.23491616      -1.29591754       2.68634538      -2.85437418
Si      10.89156854       1.05931576       0.83800372      -4.15076772       5.32834206       2.48341098
Si       5.95160073       3.87069938       5.02525369      -3.87558378      -0.23079832       1.70274347
Si       2.91833624       2.82074204       1.30806923       0.92778907      -1.08025414       0.76783878
Si       0.67905632       3.29154948       0.52835975       7.16045535       3.06034901       4.02361322
Si       0.12766388       3.38822901       3.69747299       3.09832570      -3.30290416      -2.71364631
Si       6.27762457       1.69254008       4.12033051       3.51604393      -3.31661215       2.91718740
Si       4.23255210       6.68664882       2.47419568      -1.66226290       3.90319411      -1.71019056
Si       7.72245813       4.92738378       1.81470841      -0.74537879      -0.68832923       2.80115148
Si       6.65023228       8.75237020       0.26290304      -8.26786437       0.41515955       0.02576764
Si       9.19993383      10.50035614       3.51328930      -1.78329552      -4.34363814       4.96599602
Si       2.70052584       6.28817931       0.61465709      -1.37893900      -1.93547526       0.38394861
Si       4.26300360       0.46009165       4.56615840      -4.99542354      -0.68261956      -1.55442860
Si       3.65679980       4.33229141       5.19660803       2.02394860       2.57873971       0.59530677
Si       4.81526942       1.45784067       1.21211218       6.71208847       0.64067355       1.38315363
32
Lattice="10.953064772841406 2.0414019778866393e-15 2.391532347210215e-15 2.041341254603979e-15 10.953064772841403 9.315213603459425e-16 1.1956332070866667e-15 4.658151368277192e-16 5.476532386420701" Properties=species:S:1:pos:R:3:momenta:R:3 pbc="T T T"
Si       1.50723447       7.67482228       2.73079801      -2.40666884       1.35879872      -4.63663968
Si       1.17726081       2.76453617       2.80031878      -1.66767631      -1.21902571       6.49273080
Si      10.70233207       8.95809704       3.58288809      -2.20464054      -2.18180841      -5.65679255
Si       8.58987722       5.32697521       4.15011721      -2.19189344      -0.03780891       0.48213781
Si       2.27214866      10.65500969       0.39492763       0.95766964       3.38550037      -2.13237925
Si       7.98759983       0.04826354       0.03533802      -0.23318781       1.77281919      -0.98025650
Si       6.50399721       9.17961752       5.42094774      -1.48884910      -4.87667445      -1.27311698
Si       2.97159872       8.57089760       1.12687296       4.24272170       2.39323533       4.55742694
Si       5.77081404       6.22620721       2.23456187      -2.49493979      -0.12034752       1.55606665
Si       0.61569392       6.40346436       0.87814703       2.51356246      -4.36013166       6.50405541
Si       2.20637760       3.61188504       4.73995297       1.00173191       1.80268146      -1.07946666
Si       7.52810403       2.23262209       0.76828190      -1.72857107      -1.72378323       0.61842000
Si       5.20787917       8.53614539       1.79163922       0.52214871      -1.57315289       2.19839723
Si       0.00738903      10.63375920       5.27899818       1.19066826      -0.76122781       2.67194291
Si       0.55307792       4.06286665       0.92792380      -0.34159781      -0.03221085       1.44467459
Si       9.83516270       7.17930078       4.90333411       5.86202650      -1.10032557       0.89831474
Si       2.84101981       1.29524106       2.02071793       1.39843436       6.38480287       1.27839591
Si       5.58253764      10.16253829       3.46900674       0.99782191       0.68660196      -4.48241126
Si       9.56603875       9.89865332       1.69980380       3.87935242       3.94706778      -2.84524095
Si       6.15986942       5.31512000       4.41219286      -0.80330930       2.24321341      -2.17573671
Si       3.95268076       2.25252354       0.08065210       3.85861918      -3.02044916      -1.48125369
Si      10.40649013       1.72606757       4.06003479      -7.02039486       2.81227498       0.83276221
Si       9.44249488       3.43798386       5.38802564      -0.06880863      -1.68413548      -3.17585149
Si       6.58273355       1.45683761       2.81087905      -4.36007872      -1.64783436       3.98747896
Si       3.97812318       4.75967187       1.77796581       0.54328746       3.04883145       2.74213291
Si       8.04268093       5.76880653       1.77981013      -0.11728755      -1.63134935      -0.95940749
Si       8.33030869       8.02209021       0.94776491       2.29561890       1.71482056      -4.63174064
Si       8.63678938       0.48155813       3.25967874      -0.63651090      -4.36658330       4.26759987
Si       2.33620666       7.09707107       4.88045460      -2.86192682       0.37868800      -3.78074644
Si       3.65459233       0.41670406       4.06704800      -4.54499589      -1.39853646      -2.00438795
Si       3.79556127       5.33316004       4.94427512       6.88126205       1.72776484       0.94127306
Si       6.01597986       2.93578305       4.61157838      -0.97358809      -1.92171582      -0.17838177
32
Lattice="10.953064772841406 2.0414019778866393e-15 2.391532347210215e-15 2.041341254603979e-15 10.953064772841403 9.315213603459425e-16 1.1956332070866667e-15 4.658151368277192e-16 5.476532386420701" Properties=species:S:1:pos:R:3:momenta:R:3 pbc="T T T"
Si       1.44961768       5.87045300       4.56663120       1.84426732      -0.08554999       2.23369412
Si       0.37240911       2.13754459       1.57771289       1.65477867       0.80960338      -3.19426599
Si      10.94117099       8.98926729       2.86330188       6.24756490       6.18923415      -3.94273945
Si       8.74715782       7.46105539       0.30525147      -9.37015917      -2.35602082       3.51125168
Si       3.04727068       9.81054238       5.33632777      -0.14006658      -5.04843021      -1.64460897
Si       9.24013317       2.76735996       2.39056999      -4.23183122       0.56231770       1.47405470
Si       5.37752414       7.23101572       3.98367654       1.48108270       0.86207520       2.81125213
Si       3.09552771       8.02766636       1.37866661      -0.83468501       2.68574728      -0.63736208
Si       7.26290796       5.90290307       3.51098142       2.52223634       0.09164751       3.05192720
Si       1.18460666       7.04898375       2.50328449      -2.26350187       4.04827494      -2.51873241
Si       1.10418716       3.61991859       5.22619023      -0.00463627      -4.93894874       6.30837623
Si       7.06899511       1.89237145       2.60252112      -3.07306210      -2.70199734      -1.54563935
Si       5.27183975       8.59413151       2.09352258      -6.44166470       0.58517163      -3.69425528
Si       1.15854441      10.51633798       4.13004263       1.35912626      -1.23196353       1.16876959
Si      10.74279537       6.25684927       0.76570726       2.68699080      -1.68470340      -0.73984984
Si       8.85521769       8.73923434       3.78732846      -1.28719755       1.47003228      -4.61722437
Si       2.13189996       1.20815842       2.77540840       3.65875460      -0.82643369       3.41372728
Si       5.08017018       9.60641602       4.16762444       3.85329782       0.52541011      -0.12279603
Si      10.46000379       0.76677359       5.36588590       1.11854801       4.86830852      -2.40786947
Si       5.10037078       4.99455540       1.09430897      -1.41394008      -6.43182253      -2.21176546
Si       2.88926613       2.29743001       4.67747529      -3.64409283      -5.50630971      -4.61250011
Si       9.94556332       2.95065268       4.54800831       3.74885818      -2.18377795       4.81817462
Si       9.22025726       4.40617898       0.77238764      -5.06385993       7.70672838      -7.07420220
Si       6.66353232       0.35554838       4.41415687      -1.76933211       0.67761000       0.02606673
Si       5.99821759       3.95201023       3.04125927      -0.55602104      -0.26526065       5.05064346
Si       7.27518938       5.63075589       0.37598149       4.10080551      -0.64208298       5.86508163
Si       7.65332917       8.96790284       1.74533481      -2.48125413      -0.88634892       0.41175781
Si       8.52066731      10.38689302       5.45313022      -0.92900468       2.70972350      -2.38050508
Si       3.64431713       6.37619941       5.32890903       3.62650503      -3.65452536      -1.28883383
Si       3.52614564       0.82627604       0.96734792       4.28474394       5.30437595       0.01290318
Si       4.92750065       3.33216332       4.98436516       0.78000470      -2.88954544       1.52183105
Si       5.75738334       1.50073112       0.71816823       0.53674448       2.23746073       0.95363851
32
Lattice="10.953064772841406 2.0414019778866393e-15 2.391532347210215e-15 2.041341254603979e-15 10.953064772841403 9.315213603459425e-16 1.1956332070866667e-15 4.658151368277192e-16 5.476532386420701" Properties=species:S:1:pos:R:3:momenta:R:3 pbc="T T T"
Si       1.12780401       6.59999928       4.98685579      -4.01705985       0.30324583      -3.97944997
Si       2.27720368       2.93309333       0.40778390       0.37137250       1.99672995       3.56189767
Si      10.55791345      10.13326444       4.02778423       0.15665170      -3.49672553       1.82793053
Si       8.38390354       6.72200314       3.78695917       6.65024835       1.00135989       2.05637009
Si       1.93991009       8.42484264       0.71157986      -5.02470342       2.30689543       2.44276289
Si       9.55587607       1.81735012       0.86053515       3.96836658      -0.43221038      -1.27697329
Si       7.04576952       7.94101610       2.27303128       6.30087262      -0.39976484      -0.67268299
Si       4.18358426       8.13982971       1.05650135       1.32005401      -4.44637502      -0.61183886
Si       8.34640153       5.02620943       2.05857650       3.87700572       0.25180809      -6.90973885
Si       0.89511329       6.85376726       2.06977338      -6.36507986      -2.33998972       3.89748307
Si       0.17474495       3.14902091       2.97550416       0.34739883       1.72863137       1.55181433
Si       5.70029665       2.47805854       0.69805764       1.75259873      -0.70391785      -2.88840314
Si       4.79534363       7.70502795       3.30395537      -7.20719133       3.00143660       0.80410898
Si       1.19712708      10.55992061       0.23671924      -0.45219554      -0.49990244      -0.09130802
Si      10.62670281       4.93748120       1.48900868       0.82705402      -5.73950226      -0.82011451
Si      10.46983282       7.76590582       3.73959601      -3.24777724       2.15417346      -1.03899130
Si       2.33666517       2.17754931       2.66545313      -1.77990835       1.17258862       2.18501909
Si       5.24743933       0.86796004       4.46108323       1.80289312      -2.91133605       1.67351326
Si       0.20188098       0.63800032       2.17808973       1.94343902       1.10809834      -0.44928003
Si       5.10448625       6.37816131       5.28229835       5.48708375       1.12425270       2.21059140
Si       2.83305782       0.97792051       4.70489221      -2.59756865      -1.42913956      -2.58406449
Si       0.03714272       3.37668612       5.28229733      -3.27869440       1.54879928      -1.76472436
Si       7.68539866       2.73581988       1.96394867      -1.58652681       4.11223021       2.85325737
Si       7.32934270       0.79498421       3.33429370      -0.66405312      -4.55516222       1.38683195
Si       3.77642811       4.04702246       3.18062966       3.29480538       5.10715065      -3.28319820
Si       7.35603408       6.41782100       0.42316363      -2.13944067      -0.57373795       3.87254460
Si       7.34510666      10.17371486       1.52570909       0.34798161      -0.03431204      -4.00290631
Si       8.65686726       0.04332028       5.10532899       5.18679304      -1.50857575      -3.03198435
Si       2.78189536       6.17477660       3.29350248      -1.42631709      -2.85795344       1.61203056
Si       4.44051562       1.03939120       2.16116863      -2.29087011      -2.28830729       3.13905599
Si       4.25579442       4.18929998       0.05584129      -3.30575612       5.17578081      -3.28666274
Si       5.14200730      10.25199665       0.72194948       1.74852354       2.12373111       1.61710963
32
Lattice="10.953064772841406 2.0414019778866393e-15 2.391532347210215e-15 2.041341254603979e-15 10.953064772841403 9.315213603459425e-16 1.1956332070866667e-15 4.658151368277192e-16 5.476532386420701" Properties=species:S:1:pos:R:3:momenta:R:3 pbc="T T T"
Si       1.53058090       6.27793355       3.72866197      -3.23459390       1.34394238       4.95810858
Si       1.87338806       3.88691312       2.75092776       5.64431511       4.59093150      -0.35816387
Si      10.12299019       8.64688011       1.81980395      -3.97330058       1.51013455       1.98595138
Si       8.43270972       8.09186981       3.44303235       5.98637612      -1.14753109       2.56826566
Si       3.67192074       9.44680709       4.54307137      -1.06926007       0.01385153       2.12675361
Si       8.15355305       1.63746417       1.15081319      -1.77548481      -7.64919336       4.23950213
Si       6.54640383       9.33205717       2.69884718       1.51649634       2.04079705      -4.31078017
Si       3.12666815       7.91805675       0.81139255      -0.52031946      -1.45880322      -3.19451551
Si       7.57070655       5.90394239       3.87656942      -0.50969588       1.21723578      -1.59090186
Si       0.93602434       7.16664302       1.52448871       4.34309984       0.58270470       0.53119784
Si      10.26458071       2.30244066       0.28583174      -4.75986624       0.66125987      -2.80480520
Si       6.49748651       3.16111055       0.50137602       5.22838613      -3.53908427       3.08549387
Si       4.50353579       8.14642417       2.72309704       2.06581591       2.15356551       6.76446769
Si       0.30844634      10.55889165       2.56288388      -0.47386819      -1.13619059      -3.36476556
Si      10.62788784       4.07319922       1.89036019       3.67504058      -2.09186086      -1.30350290
Si       9.07779954       9.39957423       5.30225585       0.14667536       3.09074227      -0.15170164
Si       2.67539867       1.67433627       2.41862023       3.29995207       1.86873654      -2.12849000
Si       5.72901578      10.65436128       4.49819827      -4.88527931       1.69763368       1.67125586
Si       1.17326964       0.90716739       0.75066076      -8.29232898      -0.71394890       4.17821398
Si       3.66423619       5.79144818       5.38649521       1.59179532      -3.26167245       0.80983425
Si       5.97439788       1.99175970       4.02087023      -4.71832882       1.66336453      -2.02722464
Si      10.88957176       5.54664042       5.47615573      -1.61784763      -1.40246251      -4.77279219
Si       9.27066893       4.15692535       3.87603653      -4.43376027       5.71027543       3.41740971
Si       8.24252293       2.05417536       3.41315549      -0.32938641       0.98113708      -5.17850286
Si       4.01285215       4.74079578       2.01323742      -2.83850304       1.98658349      -8.59389556
Si       7.89124936       5.17802317       0.67921743       5.90785088       0.55717370       4.24011670
Si       7.23035664      10.44126613       0.77524108      -0.55789563      -5.95135073      -1.54883100
Si       9.78808307       0.45475189       4.19274155      -3.49217973       0.65110218       4.00135176
Si       1.89858518       4.17267588       5.08425641       6.02280704       0.61484425      -1.96808891
Si       2.02312277       0.09627365       4.12280625      -2.52144675      -3.57650692       4.00686586
Si       5.16270206       6.03931682       3.57808468       4.21399991      -4.04153153      -6.33823756
Si       4.84300413       2.57415509       2.07574566       0.36073510       3.03412040       1.05041057
32
Lattice="10.953064772841406 2.0414019778866393e-15 2.391532347210215e-15 2.041341254603979e-15 10.953064772841403 9.315213603459425e-16 1.1956332070866667e-15 4.658151368277192e-16 5.476532386420701" Properties=species:S:1:pos:R:3:momenta:R:3 pbc="T T T"
Si      10.71432147       6.47005219       3.83909671      -2.58094263      -0.57139332       0.97244430
Si       2.48860239       2.92519713       1.49928988       1.93967606       3.31242014      -2.03398393
Si      10.30228857      10.16180856       4.64964211      -2.87398959      -0.91621777      -2.34834796
Si       7.27768811       8.06226415       4.58531246       2.62533307      -2.65274634      -0.80778471
Si       3.33622936       7.97912726       4.42224501      -2.05233921       0.75375237      -5.36144377
Si       9.76667566       0.81475084       0.77276076      -4.89405961       3.47596058       2.14196979
Si       7.85775198       8.89809603       2.49314859      -3.00822034       3.02560897       2.10238805
Si       3.36637634       6.86925546       1.03186841       4.21247035      -2.01474585       6.25255141
Si       5.78137220       6.36773861       3.76411904       2.99082157       0.73839027      -4.92801382
Si       9.35416529       7.14175981       1.98945580      -0.24335418      -2.26695259       1.02866087
Si       0.58194369       2.40216374       3.63689570      -0.66759946       2.24101857      -3.96134557
Si       6.20472136       2.26803437       2.02754770       2.08960179       2.11645888      -5.37880231
Si       4.52101436       8.53333465       2.21232798       9.21695091      -0.38789330       0.35329290
Si       1.25611811       0.04817747       3.57495940      -2.16592128       3.33835580       0.76609420
Si       2.20632397       4.16508779       3.42051227      -1.29362392       2.37798899      -2.83104355
Si       9.64108312       7.97259302       5.26603011      -5.75866620      -0.44809606       0.45096886
Si       4.04374359       1.37897325       2.37610242      -1.15582060      -0.41570804      -3.00903053
Si       2.87994174      10.28178292       5.08576832      -0.94135996      -2.01137665       5.46827212
Si       0.33475969       2.61780694       0.53504715      -4.06958614      -0.82714159       0.06747892
Si       4.94737176       5.31879048       0.22911047      -1.62240598      -0.34142909       3.56691015
Si       4.33635765       1.19362891       4.69227622      -2.16054601       3.50721187       4.22459465
Si      10.01455047       4.54084881       5.25718102      -1.43516830       2.43518925       5.96879948
Si       9.31617816       3.34890666       3.38678277       1.61969283      -2.54209847       0.18369996
Si       7.72728168       1.62215646       3.70499106      -0.27875572       0.69659817       4.45534889
Si       6.34068403       4.70433497       2.00136355      -0.36087918      -0.17842800      -2.70200924
Si       8.65782496       4.91153147       1.67848848       1.19516970      -0.74592479       5.08514643
Si       6.33150696       9.43117658       0.81253277       4.26984317      -0.42263844       1.53964097
Si       9.02689176      10.85592917       2.81028326       5.14087673      -8.38649146      -6.62603621
Si       2.01598689       6.49863360       3.07161958       1.04326780      -2.91132008       3.58636058
Si       2.89613086      10.30972438       1.93752989       1.38568416       1.95606715      -4.13903787
Si       3.67750460       3.47197362       5.07495949      -0.32940342      -1.42045067      -3.31196997
Si       6.51032861       0.85864067       0.13568772       0.16325359      -0.51396850      -0.77577308
32
Lattice="10.953064772841406 2.0414019778866393e-15 2.391532347210215e-15 2.041341254603979e-15 10.953064772841403 9.315213603459425e-16 1.1956332070866667e-15 4.658151368277192e-16 5.476532386420701" Properties=species:S:1:pos:R:3:momenta:R:3 pbc="T T T"
Si      10.61469387       6.73731116       2.64287164      -2.10859635      -1.22335344       0.02363220
Si       2.17175297       2.81631202       2.27162272       5.70965293       1.25974275      -0.29989258
Si       9.20759864       9.73476661       3.93308559       0.12789443      -0.39740857      -0.24689874
Si       7.72079036       6.23495331       4.64939204       2.24752628      -1.97840925       3.54679096
Si       2.47843627       9.99169227       4.57987760      -1.48368078       0.50153291      -2.90179522
Si       8.30037788       0.74995993       0.73502520       4.39772231       4.93676418       1.15366236
Si       6.58613968       1.00130939       4.53892679      -1.18317242       0.81243134      -0.57580031
Si       2.74381772       8.42517250       2.81184941       1.85540479      -1.22272865      -0.61540205
Si       6.04370095       6.41605508       3.03131698       3.24189651      -3.66143437      -2.09895605
Si      10.37081009       8.43839978       1.05052126      -5.91348881       3.87133264      -1.93559884
Si       9.68815545       3.14079194       4.11738496      -3.23003559       1.79686377       4.76144362
Si       7.44989703       4.04209689       2.05620592       0.46705027      -2.45948388      -5.76266783
Si       5.05782581       8.60754135       3.03845133       1.24660720      -0.91040216      -0.71306017
Si       0.34111015       0.04458741       3.91713250      -5.11420617      -1.41667802       0.24754093
Si       2.09934104       4.66806845       0.72765283       0.60703608      -1.44439605      -4.47350146
Si       9.94198564       6.92237856       4.82384177       2.35709737      -1.29653259      -0.41966138
Si       0.95288083       0.87405641       1.82978217      -5.15323957       0.01850555       4.76768824
Si       4.99785979      10.19050292       4.78001578       0.17656509       1.34451756       3.26052286
Si      10.43880767       1.44570086       0.08506316       1.24219790       0.44821587      -6.35523763
Si       6.19189822       6.81623305       0.75065143      -1.31483939       3.95140851       3.19092089
Si       4.18703636       3.38875938       1.31680687      -2.35804302      -2.00033906       2.60243179
Si      10.74393345       4.73370384       0.10504002       3.93375612      -1.32237905       3.86508286
Si       7.71864178       3.97512418       5.19612564       4.63247274       0.58712527       2.59852675
Si       7.92964864       1.85292437       2.78618269      -3.69133912       3.24355423      -5.82552237
Si       4.81162502       4.44143385       3.27113734      -1.07149791       3.15406241       4.77868282
Si       9.73210414       4.61586816       2.20623014      -1.24112816       5.23513719      -0.84577460
Si       6.15241165       9.10956960       1.05347596       0.26299427      -6.03948256       1.22768016
Si       8.41124472       9.57756302       1.65468475      -0.38413658      -0.33322570      -0.69468041
Si       1.92684421       6.26241758       2.49818299      -1.08396229       1.78395413      -0.28985672
Si       1.53075806       9.58867547       1.17013159       0.37338542       1.69496932      -0.92354482
Si       2.55773221       4.53373858       3.90252075       1.29587983      -1.38675295      -1.66887473
Si       5.56692383       3.04661204       4.96721393       1.15622662      -7.54711132       0.62211945
32
Lattice="10.953064772841406 2.0414019778866393e-15 2.391532347210215e-15 2.041341254603979e-15 10.953064772841403 9.315213603459425e-16 1.1956332070866667e-15 4.658151368277192e-16 5.476532386420701" Properties=species:S:1:pos:R:3:momenta:R:3 pbc="T T T"
Si      10.71887896       6.51079999       3.49798816      -0.57336374       2.24040182       3.70199680
Si       2.76484265       3.50380014       2.13933679      -2.29709333       0.49578696      -0.43495306
Si       0.09108108       9.78592201       2.08384090      -1.42716285      -4.53463665       3.29789795
Si       7.14017282       6.87488831       4.20870855       0.47671390      -0.55909321      -3.90469664
Si       2.44512868       9.10952764       4.96743187      -6.76452494       1.64142749      -1.39703279
Si       9.88403802       1.76942658       1.00826640      -0.58581299      -3.82397143       2.76920496
Si       6.16064025       8.83799983       3.35419910       4.55885266       0.81744665      -4.02518179
Si       2.77902521       7.52923949       1.26841058      -1.76106145       5.84387390      -3.67949532
Si       7.19247498       5.19624142       2.56013438       1.49098111      -0.39100026      -3.15437487
Si       9.45956698       9.44382746       0.37092764      -5.31103433       0.34179385      -1.76638302
Si       1.42171844       2.80514428       3.86563426      -1.27195222       1.33860611      -0.81218248
Si       4.60184420       2.47911394       0.93369640       5.16318320       0.71249871       5.92443543
Si       5.06548821       8.07647487       1.41032081      -0.20810089      -3.50689988       4.01226743
Si      10.08004437      10.74258978       3.96129336       6.18448128       0.94787571       1.36670596
Si       0.71664475       4.80212945       4.76319651      -1.24720701      -3.69722775      -3.83517564
Si       9.21545186       7.22776827       5.20106537       0.71790267       5.74028543       2.72413714
Si      10.24369480       2.02404720       3.28019796       2.93615141      -2.25006539      -1.82292630
Si       4.79091728       9.60282741       5.09120883       2.00844109       3.09596067      -3.60464451
Si       1.07852355      10.91310868       0.26915674      -1.62237657       4.24462314       2.36865878
Si       6.03089034       6.07200543       0.62009466       1.65692378       1.62491047       4.89781150
Si       2.34130254       1.93201242       0.38698308       3.34215953       2.66663919      -2.49278743
Si       9.73413119       3.97435772       0.31152329      -6.87713717       1.64704482      -0.64668831
Si       8.41714511       3.40655803       3.89238795      -1.44710323      -1.98704460      -2.13304743
Si       6.66476404       1.81045095       3.78075657      -4.85922709      -4.96136502      -0.91476557
Si       5.24636429       3.58525044       2.99668180       2.35099677       1.37487503      -0.76059769
Si       9.31052008       5.82709609       1.66013660       2.16351157      -4.03375077      -0.18701868
Si       8.02854179       0.26630209       0.97393743      -5.71830748       1.66943258      -4.50672873
Si       7.66250476      10.69734864       3.17430773       4.52943783       1.01736957       2.08002178
Si       2.56460930       5.28696389       0.61766715      -1.01323695      -0.61195268       6.18874948
Si       1.41510472       8.12868103       3.04793908       8.56671643       0.19934576       4.17786272
Si       4.58498689       4.46880364       5.15074535      -2.74428881      -4.06008353      -2.65798460
Si       5.86267724       0.68663761       0.17369603      -0.41746219      -3.24310669      -0.77308510
32
Lattice="10.953064772841406 2.0414019778866393e-15 2.391532347210215e-15 2.041341254603979e-15 10.953064772841403 9.315213603459425e-16 1.1956332070866667e-15 4.658151368277192e-16 5.476532386420701" Properties=species:S:1:pos:R:3:momenta:R:3 pbc="T T T"
Si       0.19335892       5.89449657       4.06479756      -1.13647214      -2.18793427       5.61287140
Si       3.42244738       6.04310202       2.12826418       1.18158181       1.89768793      -1.96355629
Si       1.24208649       9.84107410       3.15815635       1.99867440       0.91227053      -3.14010482
Si       8.73287017       8.27741836       4.87913035      -0.74449401      -5.40103450       0.74008619
Si       2.80723107      10.23536110       4.96554077      -5.77330500      -2.80049955       3.47895991
Si       9.82241880       0.75815368       0.58521650      -4.10468821      -5.88763806      -0.07585734
Si       6.99451892       9.87418505       4.55303920      -0.23111072      -3.81859061      -6.84712269
Si       2.59474053       8.69306704       1.34435265       4.49474060      -1.51039380       3.52040085
Si       6.92281606       6.90350186       1.93343987      -3.02328119       2.82295592      -1.40855909
Si       8.83111435       8.32451198       1.78487923      -1.93183552       0.51949102      -0.05436159
Si       1.22969897       2.90352578       4.19806394       0.88988986       1.03061195      -0.76334176
Si       6.47858298       4.55142805       2.64610628       2.24574720      -4.29733396      -1.92560878
Si       4.96518084       8.73879914       1.95492318      -4.64989088       4.35684811       5.21462880
Si      10.69112039       1.00455058       3.89664972       0.67652832       1.23529390       0.91580847
Si       1.26878956       5.16145662       2.09110292       0.48989987       4.75608726       4.40554493
Si      10.52188306       8.13414662       3.39517042       4.14412083       2.19578564      -5.30063426
Si       1.23805406       2.77543067       1.82027709      -3.10528906       3.87849327      -2.09445176
Si       4.77257659       8.88876034       4.31512313       3.56320538       5.51131611      -2.39544627
Si       1.10647574       0.31230441       1.22232012       0.22050121      -0.52818177      -4.48038705
Si       5.64683761       5.34298472       4.66870344       1.32035360       0.89791250       4.21317856
Si       3.12050794       2.80968348       0.28732812       4.19207299       1.73462553      -0.80230301
Si       9.32331247       4.43556991       4.88797348       2.86535748      -0.63749854      -5.39011163
Si       9.79065568       2.99971477       1.29695295      -3.15019428      -5.43270769      -1.16488521
Si       8.24485920       3.02929690       3.17926041       1.48999211       1.97943533      -2.60357046
Si       4.70659088       4.36816326       1.08462515      -1.17028455       0.39883026       2.63329014
Si       7.71716047       6.18997084       5.29943428       5.89602970       1.11734451       0.03505889
Si       7.97448368      10.41194969       1.16082701      -1.17675750      -1.76249956       2.21580835
Si       6.44748771       1.10768311       3.67512681      -2.35840430      -1.08259551      -1.58013404
Si       1.83832704       6.65089532       0.22963330       3.35045898      -0.84325226       3.91453196
Si       5.75553582       0.05687127       1.65513757      -3.39234868      -0.99614740       0.77615504
Si       3.82734333       6.73040859       4.33634826       0.59719553      -4.19270934       5.68320185
Si       4.53158790       0.97581414       5.27703187      -3.66799381       6.13402704      -1.36908931
32
Lattice="10.953064772841406 2.0414019778866393e-15 2.391532347210215e-15 2.041341254603979e-15 10.953064772841403 9.315213603459425e-16 1.1956332070866667e-15 4.658151368277192e-16 5.476532386420701" Properties=species:S:1:pos:R:3:momenta:R:3 pbc="T T T"
Si      10.36470193       5.57444990       2.90310966      -2.21818547      -2.59548240       2.78299821
Si       3.44242258       5.34418780       2.14837945       1.47839618       2.58468329      -2.64610087
Si       0.11884809       9.50439475       3.54669521      -5.64409432      -2.59970709       2.33254331
Si       7.73971621       7.97959156       4.86140777      -0.51243771       1.78326719       0.83493948
Si       3.56383606       7.88206891       4.77988674       0.93473765      -3.00228524      -0.59007072
Si       7.72492659       1.07853726       0.55817442       1.70760884       0.88974696       3.35561120
Si       6.56807681       9.97004931       0.26469783       5.83264167      -3.24185678      -0.61341311
Si       3.49513164       7.87735381       1.64887835      -2.51666389       0.98116681      -1.93446720
Si       7.22132623       6.28589801       0.94542691      -2.76666063       6.73005874       2.36495780
Si       0.16304679       6.90049651       0.88134417       2.79337090      -0.63250580      -7.03101791
Si       1.70650079       3.53898859       5.24466718      -3.96614800      -3.46356872      -0.31972659
Si       7.10849229       2.79957319       2.13348984      -3.93906938       2.51901054       5.72487551
Si       6.53950751       7.34585652       2.91957522      -0.31169080      -3.90015801       1.28544733
Si       1.05874324      10.31786694       0.01191204      -0.00965133       3.67771471       2.89133224
Si       1.54180099       4.28393529       3.03119610       0.53046634       1.71900193       2.34153841
Si       9.98702088       7.55338179       4.34273963      -0.01609929      -1.89610647       1.69570802
Si       2.05743031       1.79808494       2.80431643       3.53476052      -3.68619368      -5.28702489
Si       4.72431235      10.00374109       4.25387662       6.61633872       1.84327580       1.43625932
Si      10.07989700       0.69613630       0.77629859       1.87844123       2.08124265      -0.91385282
Si       5.95634967       4.66085179       5.22117807       1.01019472      -3.74988422       2.10689703
Si       3.25743033       2.12014957       0.82054482       2.63077888      -1.23655396      -4.17986560
Si      10.68911788       2.37139632       4.80114870      -2.90639969       2.69271751       2.52510042
Si       9.27304477       4.15740363       4.73129339       2.26937215       0.44647403      -0.94531225
Si       7.34609720       2.87441852       4.42694856       0.67451835      -3.22561032      -1.32809056
Si       4.92697517       3.59324587       1.49809963      -3.42097800       1.77156304       0.45395486
Si       8.70721137       4.59196702       1.50398815      -1.07023697       0.79968910       0.29517152
Si       5.37093931       9.20611307       2.16247523      -3.99197183       2.55283926      -0.18502331
Si      10.83715953       0.87931511       2.94194031       2.34488037      -2.88790926       0.91252482
Si       2.10153648       5.80861178       0.13474747      -2.01211469      -2.10051632      -1.34138102
Si       1.33117281       8.74889241       1.71852178       4.81561543      -1.43800011      -2.04181689
Si       4.79679314       6.12981260       3.86585881      -2.04965262       1.56350490      -6.01339024
Si       2.96108868       0.54750982       4.61558666      -1.70006734       5.02038193       2.03069450
32
Lattice="10.953064772841406 2.0414019778866393e-15 2.391532347210215e-15 2.041341254603979e-15 10.953064772841403 9.315213603459425e-16 1.1956332070866667e-15 4.658151368277192e-16 5.476532386420701" Properties=species:S:1:pos:R:3:momenta:R:3 pbc="T T T"
Si       9.42857829       6.49374447       1.94434518       3.44616615      -2.99246402      -2.35480732
Si       3.34425715       1.12178813       2.59370464      -1.83319659       1.15908262       6.72522007
Si       0.46165509       9.64968717       3.31188435      -0.76603214       2.91214241      -8.95224498
Si       7.63191736       8.69245073       4.71952573       2.06286177      -9.66073152       5.40335585
Si       2.29074899      10.07811078       4.90543535       0.58314585       5.99398478      -4.75143148
Si       9.23172039       4.09500468       2.42435139       0.04567321      -1.07310731      -5.53642768
Si       8.04249248      10.79120273       0.17467274      -4.03389409      -3.07006901      -4.72614933
Si       3.97849224       8.49583371       0.26473620       2.11921947       2.03763824       2.57691682
Si       4.84935353       5.35700763       3.19766368       1.54903876      -0.39593502       2.25162669
Si      10.82560906       7.56721175       0.28655661       1.98578648      -0.61609862       5.67031699
Si       1.90244536       3.36384340       5.12538058      -2.57236577      -2.44845890       1.94225749
Si       7.51007785       2.90089308       1.30760896      -3.17236653      -4.00897353       1.65664370
Si       5.37831609       7.33616199       2.04476127      -0.05783680       0.46951322       0.69330873
Si       0.53874604       9.76437264       0.99127759       1.56977747       2.98278620       2.44293566
Si       1.25398449       5.63773157       2.13830935      -2.54816674      -3.61183103      -5.01209029
Si       9.70136319       8.02671079       3.74999464      -0.95682222       1.37774261      -2.92010482
Si       1.29844596       2.05657011       3.27202016      -3.50680331       3.37457371      -0.14431661
Si       5.41412586       8.88508528       3.80820513       1.21352049      -0.43891893      -3.95849175
Si      10.17746786       0.74188936       0.57298888       0.25723742      -1.69135300       0.83818238
Si       6.40251084       5.07705967       4.97348738       0.73887721       5.08350430       2.79839089
Si       3.81922698       2.44851553       0.69561142      -1.11447478       5.16011578      -1.38766386
Si       0.47343333       3.45459617       1.56955438       3.50522053       1.19739615       4.60464572
Si       7.99492001       3.38762178       4.41527487      -0.45577052      -5.04589325       4.13381146
Si       6.98009731       1.25131734       4.07339074       2.49514454       1.88484601      -4.92084505
Si       5.42759150       3.99536686       1.34964114      -1.28168997       4.62257112      -4.54385375
Si       7.32759950       6.91838719       0.76607425       0.35694273      -1.65821410       1.54141227
Si       6.66539191       0.62178422       1.84144309      -2.41604443       3.32627808       4.15509870
Si      10.35701657       0.77114207       3.64415996      -3.54701249      -0.28497015       0.68656149
Si       2.15628481       6.87578292       0.31237731       3.60128635       2.43009748       5.66416455
Si       4.65837013      10.22259834       1.93623361      -3.25127186       0.01550585      -1.33049246
Si       2.60000340       5.37274717       4.04472971       3.44940520      -3.36695296      -3.63360085
Si       4.63841104       0.97206073       4.56647105       2.53444462      -3.66380720       0.38767076
32
Lattice="10.953064772841406 2.0414019778866393e-15 2.391532347210215e-15 2.041341254603979e-15 10.953064772841403 9.315213603459425e-16 1.1956332070866667e-15 4.658151368277192e-16 5.476532386420701" Properties=species:S:1:pos:R:3:momenta:R:3 pbc="T T T"
Si       9.72790495       5.35867907       3.85764972      -1.75703030       3.34016619       4.35651685
Si       2.70624116       4.13185645       3.96549718       0.69180544       0.33480491       1.21640158
Si       9.27879939       9.28914420       3.63390234       3.77776767       0.82145118       7.16833687
Si       7.34011865       6.75390861       1.51248613       0.02283395       1.55138932      -0.96660166
Si       3.27016415       9.11339457       5.01968802      -0.38971662       5.33739130      -1.70278660
Si       9.33185639       3.10087066       3.13726105      -0.66075487      -1.26849359      -3.65546290
Si       8.08603428      10.17069303       5.45523528      -3.07615513       6.02965918      -5.55300880
Si       2.24397460       9.31426396       2.92298086      -2.14674227       2.76726694      -2.16557507
Si       5.64647179       6.25496728       3.05149673      -1.32558694       1.15332365      -5.18088840
Si       1.43224773       7.58472684       0.07464391      -0.58228309      -0.03295016      -4.78302058
Si       1.95257879       1.89338260       3.86197035       1.88939842       0.14108883      -1.27176550
Si       7.38456392       1.43103715       0.28463029      -4.74984169       1.95856662       6.48177732
Si       6.43784522       8.70734539       0.59418202      -0.35544991      -1.00218232      -3.23426312
Si       0.43049039       9.42933526       4.57086441       0.31289165      -0.75463400       3.07858515
Si       1.97991734       7.03620883       2.23187055      -3.95759278       3.37951442       3.77677627
Si       9.31356596       7.22731593       2.56106194       3.65743347       2.28781152       1.81356466
Si       1.93993896       0.47480150       1.93982130       3.53991091       2.48929488       0.19564168
Si       5.26893907       8.32982759       4.10276521      -0.58680371      -5.85944939       2.61990209
Si       0.04875759       0.18213488       0.63185680      -0.77573429      -0.63511470      -0.50504855
Si       6.23174071       4.59239332       4.55028995      -6.20198430       4.56659514      -1.32826045
Si       3.20395665       0.53248499       5.44162833      -2.22793592      -1.48143389      -1.54794258
Si      10.70070133       2.02408392       4.70607439       5.24432518      -3.57615415       3.06952444
Si       9.14618247       2.98096925       0.83259161       0.00892431      -3.96891440       1.60511116
Si       7.09072474       2.56120863       3.73869681       4.47179855      -4.42902934       5.25134204
Si       3.68915503       5.35592929       2.16008115      -0.82654302      -1.11223329      -1.21561271
Si       8.21905063       5.06609007       0.16014737       5.70507316      -2.03521208      -3.12030417
Si       6.14364938       0.98604642       2.32011210       2.80783388       2.48687066      -6.61126113
Si       9.12489126      10.88357202       1.94694600       4.27963945      -0.13694658      -2.09162054
Si       1.05299784       5.82149738       4.07521757      -1.57965752      -3.65304299       2.74508913
Si       5.15304732       9.79215044       2.27361231      -5.05440821      -5.62350241      -0.50292238
Si       4.26548209       4.12236251       0.25191159       4.26457847      -2.29213804      -4.62754425
Si       4.91866481       1.92159796       0.63123044      -4.41999397      -0.78376344       6.68532014
32
Lattice="10.953064772841406 2.0414019778866393e-15 2.391532347210215e-15 2.041341254603979e-15 10.953064772841403 9.315213603459425e-16 1.1956332070866667e-15 4.658151368277192e-16 5.476532386420701" Properties=species:S:1:pos:R:3:momenta:R:3 pbc="T T T"
Si       0.96674496       3.72334198       3.92570798       5.55715791       1.97829908       8.05947934
Si       0.89658345       2.61070120       1.83551227      -6.43589124      -1.35730935      -4.96391073
Si      10.26002124      10.65795228       4.05862372       5.64993661      -4.95387287       2.28947360
Si       8.01660627       7.70627502       5.42099594       2.20639908       1.22943307      -0.97210998
Si       1.98505769       7.34022816       5.26747231       6.78577479       4.70362741       1.15615183
Si      10.04173733       1.14871249       2.05430362      -0.93169109       0.67334683      -2.31409319
Si       6.90784675      10.48846451       3.30563404      -3.93709471       4.96456331       0.03844212
Si       3.98159288       7.17004919       1.02966133      -2.54742027       2.18756250      -0.44024425
Si       5.97834947       4.73568796       3.44397838      -0.12088204       4.14257015       0.42479811
Si       0.52178941       6.57587100       1.53596675       2.26901947      -0.04114942       4.82952035
Si       2.19769869       2.29305472       5.30016543      -1.91566288      -1.96257567      -3.72326610
Si       6.93283215       1.05931584       5.07669394       3.41897432       4.45343824      -0.13010490
Si       5.82506959       8.49635190       0.57402522      -1.94446263      -3.94484914      -3.71492221
Si       1.45455590       9.57444200       4.48132224      -5.12525211      -0.91613186      -0.37952087
Si      10.66308420       4.45448756       0.97441645       2.02115779      -4.50464817       2.94293859
Si       9.67786246       8.14247746       1.58149183       0.57491396      -6.22475274      -8.39327662
Si       2.01009571       0.13262623       0.88500880       1.04757603       0.43483740       7.02640389
Si       4.95641621       9.59547436       4.20343007      -0.81756047       1.18671104      -1.59505887
Si      10.80430405      10.11654457       0.89283034      -0.36352250       1.88866393       0.68772617
Si       7.04784735       4.15923625       1.41963555      -2.82788966      -0.42342801      -4.75078491
Si       3.91574652       3.13667626       1.13992734       0.16483765      -3.73182433       1.86936895
Si       9.52456389       3.77828219       4.51239893       2.13146328      -2.96381052      -1.46783455
Si       9.21685563       1.52079839       5.30178547      -5.56678519       1.28283693       2.09412709
Si       9.04536000       3.32153955       2.25984714       7.91915751      -6.86183726       5.00024328
Si       3.91924257       5.25289487       2.36903757       0.02492629      -0.93231150       4.97089704
Si       7.72231468       5.41311166       4.96570217      -0.59885947       3.41103294      -1.62934282
Si       5.86154365      10.76669482       1.27450007       0.78061924       0.89615518       2.19267651
Si       8.68266915       8.98713161       3.54954034       0.89256419       0.94947553      -1.15834923
Si       1.85733274       5.85758366       3.41291042       0.35175213       0.99382986       1.42390967
Si       3.17441480       0.21687280       4.18570113      -8.29204277      -0.42368775      -1.10542867
Si       5.78008511       3.09295109       5.18277049      -1.48234893      -1.43394331      -5.48174610
Si       3.88749489       0.89844841       2.03047125       1.11113572       5.29974849      -2.78616251
32
Lattice="10.953064772841406 2.0414019778866393e-15 2.391532347210215e-15 2.041341254603979e-15 10.953064772841403 9.315213603459425e-16 1.1956332070866667e-15 4.658151368277192e-16 5.476532386420701" Properties=species:S:1:pos:R:3:momenta:R:3 pbc="T T T"
Si      10.29135366       6.32555375       2.32161041       1.50947061      -3.76383673       2.67068862
Si       2.76738971       4.46937841       5.45545844      -4.99149655       0.98123218      -1.72528564
Si       9.28900453       9.71487032       3.22653073       4.01880968       2.65500237       3.21730794
Si       8.99516870       7.30539446       0.60218150      -0.11767377      -6.70979060       1.74096450
Si       3.36573589       7.97500443       4.04810832       7.70679218      -1.74642917       0.34925182
Si       7.76455397       1.63170524       1.58224248      -1.74235617      -3.42322387      -3.80181813
Si       5.65951356       8.28764895       4.55259453       1.33299139       1.83012147      -2.57534564
Si       4.00652863       9.16004978       1.93264799       1.33552651      -3.41308394       1.94813309
Si       6.58335289       6.67223669       3.07083345      -2.38433006      -5.10794213       1.24418678
Si       2.39102400       7.88604769       0.82204261       1.34475178       0.90874240       1.03700585
Si       0.45956328       1.23999122       4.82872130      -1.77171121       0.71183381       0.72064899
Si       5.63926075       2.10727118       0.72038101      -1.98821861      -0.78448423      -0.78104041
Si       6.20549440       8.31207406       1.34744958       0.87967450      -6.82967374      -2.46212981
Si       1.30089690       9.04736707       4.58763042       1.57702988       2.02635265       2.21884758
Si       1.58160838       5.77884922       1.61494800       2.36345900      -2.56726774       3.82940721
Si      10.27634084       7.82266112       4.16033782      -0.67761843       3.95864288       2.21878770
Si       0.44160422      10.67370780       3.04260034      -5.73669221       1.60496537       0.48914903
Si       6.04375314      10.51939122       3.76778745       4.83019897       8.47502838      -0.61275015
Si       1.39021762      10.64914704       0.92811023      -2.75573171       4.42306918       0.88344854
Si       5.17613136       4.45481467       0.54291794      -1.55839504       0.40486365      -1.33382737
Si       2.59837991       2.14645285       5.07069188      -3.10172061      -1.75800477      -5.94845495
Si       8.46188627       5.19963461       3.26472048       2.35834966       4.87908362      -0.01225249
Si       9.18234363       1.90552903       5.22695932      -2.39948446      -0.84498113      -2.62305316
Si       8.05439982       2.92898627       3.46972890       2.18876800      -2.46110417       6.13570414
Si       5.04607092       4.94674694       2.81892017       0.77828772       0.30063806      -4.63943618
Si       7.49249792       5.60556616       5.42421484      -2.24751999       2.98891702       1.95418567
Si       7.59329755      10.18068601       1.74827802      -2.75523723       0.00994661      -2.54989781
Si       8.09368993      10.74310623       4.93780191       0.66367120      -0.95789341       2.35739600
Si       2.96957824       5.73188900       3.49216004       1.79965415      -1.49581746       1.53125855
Si       4.24078347       1.24479740       3.54911386       2.41664473       2.18494546       0.55974310
Si       5.75933995       2.99461653       3.94584195       0.36957684       3.20295087       1.15069617
Si       3.63989057       0.66923418       1.34790256      -3.24547076       0.31719714      -7.19151954
32
Lattice="10.953064772841406 2.0414019778866393e-15 2.391532347210215e-15 2.041341254603979e-15 10.953064772841403 9.315213603459425e-16 1.1956332070866667e-15 4.658151368277192e-16 5.476532386420701" Properties=species:S:1:pos:R:3:momenta:R:3 pbc="T T T"
Si      10.94115927       5.31323617       3.09223802      -6.98161907       4.55936423      -6.38054437
Si       2.53923281       4.25024842       0.54547938      -2.33279023      -0.02379775      -0.83584006
Si       0.00243316       8.71416201       2.75891116       4.30915908      -2.37610822      -1.59149336
Si       8.61067456       7.15795170       0.35376864      -0.26845103      -0.20018346       3.13768872
Si       1.66838958      10.35117364       3.55661989      -6.59225717       1.91472587      -4.35174148
Si       9.05406178       1.61152470       1.97668202       0.23090433       0.81098258      -2.65098556
Si       7.38485793       9.42365573       3.50188975       2.43616496       1.94031016      -0.41662416
Si       3.20311013       7.79482094       1.53539618       6.38696847      -2.01514161       2.45441794
Si       7.10505177       5.16799835       3.04080914       3.12399624       2.25472791       4.26580370
Si       1.02048027       8.19640221       0.70940798       2.71107313       3.74951181      -1.36717270
Si       0.90064953       2.61052120       0.36593851      -3.94768167      -1.84030909       0.33415654
Si       6.85981851       1.88644491       2.92132169       1.29794316       3.88861943       1.58765996
Si       4.42155852       7.50558267       4.92008949       4.65112834      -6.65119904       5.07797544
Si       0.37841876      10.37811220       0.02416179       0.31330605      -1.81436908       0.14931220
Si       2.19158774       5.75882323       2.27866578      -1.61170085      -1.29891075       3.84105329
Si      10.60622677       7.16172481       4.52216776      -2.85011384       0.80400875      -1.99800125
Si       1.77010808       1.92732304       3.66238216      -5.35210193       1.68841065      -5.99097872
Si       3.90244015       9.88715024       4.37103739      -0.17306452       0.66386690       0.91844866
Si       1.74865907       0.64939218       1.50075909      -0.76440787       2.52465521      -0.96116858
Si       6.75300007       7.25405756       4.33595434      -0.13583265      -1.31044612       0.39027246
Si       4.24702878       2.62586289       0.57336578      -1.88633516      -0.11346453      -0.32821539
Si      10.56982514       2.97590215       3.60306523      -1.20499163       1.34211372      -5.70799627
Si       9.44088356       3.30102174       0.34262735       3.53772748       0.31800940       1.63194247
Si       7.35035908       3.43252057       4.69848301       0.69617536       0.05764085       3.82896589
Si       6.23553640       3.53455925       1.33161404      -3.65576142      -1.16028139      -1.91302483
Si       9.06815148       5.26596139       1.65452264      -1.61720488      -3.66157453       2.01113315
Si       8.85516406       9.07619957       1.71582545       4.91138622      -3.12301886      -2.97285343
Si       8.93120643      10.69977921       0.01398142       3.98482980      -0.31649325       1.27707621
Si       3.47232150       5.36517131       4.17336113       1.78262123       0.86564175       3.06496452
Si       5.51117985      10.80720980       2.84392323       0.40661657      -1.02614371       2.11032151
Si       3.98517580       3.01626743       3.69184619      -3.33047139      -0.49376286      -5.19814830
Si       4.03190405       0.27658351       0.92904329       1.92478492       0.04261504       6.58359583
32
Lattice="10.953064772841406 2.0414019778866393e-15 2.391532347210215e-15 2.041341254603979e-15 10.953064772841403 9.315213603459425e-16 1.1956332070866667e-15 4.658151368277192e-16 5.476532386420701" Properties=species:S:1:pos:R:3:momenta:R:3 pbc="T T T"
Si       9.98249694       3.64301105       2.05352468       4.15965483      -4.43182667       4.22837590
Si       0.61716574       3.44105744       3.77955635      -2.38227529      -0.20143018       5.83483311
Si       8.71252785       9.19845322       3.64434837      -2.71282479      -0.49445129       2.40623851
Si       9.01096654       5.86834591       4.55552730      -3.02013040       1.71823668       4.64479087
Si       1.28546665       7.80969229       5.14182026       0.05875062      -3.11839121      -0.38691032
Si       9.68299436       1.43097477       1.50254878      -0.93414038       2.33002424      -0.02267108
Si       7.36318701       9.74665085       0.00149181       1.78572004      -1.06484415      -5.27461264
Si       3.66138089       8.82693011       1.84620084       0.16403625       2.16892924       0.74864187
Si       8.06030680       4.82842746       2.66139993       2.79156632       2.61768372       0.21526940
Si      10.79479611       8.17689548       1.50639200       0.56318187      -2.39579556      -0.22937112
Si       2.58376296       0.20892790       4.85380907       2.76005607       1.10559714      -2.13336347
Si       5.14960317       2.24411027       1.42880104       1.41918059       3.90725625       4.38440810
Si       3.71702371       6.46922656       1.90646273       1.75572801       1.30278793      -4.56467159
Si       1.65559042       9.72233147       1.04152777       3.17046913       3.20987401      -2.76318050
Si       1.80314660       5.76717051       0.67530635       0.91451424      -0.57891693      -0.29970408
Si      10.40895443       7.61585326       3.77511189      -2.04236034      -4.67407069       1.08810993
Si       0.77251838       1.11350767       3.81747480      -0.01212485      -2.37293510      -3.13900679
Si       5.19328513       8.89195907       0.03032229       1.46908317       5.94894748       4.42780325
Si       1.07803873       1.01849754       1.51739876       0.87924831      -5.27495539       1.45074856
Si       5.33149711       6.54809475       0.15587368      -4.17154159      -4.34192162      -2.17430410
Si       2.95613631       2.19840212       0.59064785       5.70126309       2.26886192      -0.43607167
Si      10.71631295       4.64330591       0.11936375       0.44404336       2.86107372       0.39035969
Si       8.16766069       0.99334243       5.32029787       0.15355425       5.46793461       4.02663996
Si       6.23681299       2.13980605       4.81836928      -2.13112392       0.18845064       1.38653021
Si       6.04071960       3.72497447       3.09476768      -6.80947011      -0.53564977      -5.54368903
Si       7.57615866       6.31662873       0.89263138      -1.16610664      -0.87601972      -1.57225720
Si       8.45743254       8.41014482       1.48926615      -0.53682288       0.22028319      -0.65587935
Si       9.53538975       0.41163524       3.55545465      -5.50427658      -4.34892363      -1.76032254
Si       2.66691906       4.11277361       4.69432953       0.27427776       0.62067494      -3.73114403
Si       4.24130383      10.01149666       3.72479371       0.13096886       1.68357376       1.53569440
Si       4.47252007       5.30779500       3.80126771      -1.75314528      -2.43750629       1.76396358
Si       5.78164341       0.63079258       3.02578305       4.58104628      -0.47255126      -3.84524784
32
Lattice="10.953064772841406 2.0414019778866393e-15 2.391532347210215e-15 2.041341254603979e-15 10.953064772841403 9.315213603459425e-16 1.1956332070866667e-15 4.658151368277192e-16 5.476532386420701" Properties=species:S:1:pos:R:3:momenta:R:3 pbc="T T T"
Si      10.04624162       5.21136510       2.22782928       1.58136138      -4.09399742      -1.39836484
Si       1.32008954       3.89353395       2.65069321      -7.79399224      -2.79246880       0.19868467
Si      10.34271900       9.05596324       2.06283882       0.30544158      -2.90763809      -2.56419851
Si       8.59001230       6.43768846       0.70180874       7.45866748      -6.65858268      -2.33656860
Si       1.51485721       9.16943842       5.46065281      -4.93235157       2.86028879      -0.64253203
Si       8.73742277       3.32877931       1.53084881      -3.02048291       4.54774943      -1.61577182
Si       8.79289383      10.23164439       5.29437513       1.01992389       1.07325571       0.12512772
Si       4.54282031       8.43077162       2.79571529      -2.13430142      -2.68026299       2.04631589
Si       8.11320427       8.63702575       1.37932523      -3.81494821      -0.16505078      -4.60246601
Si       1.84314646       7.15671126       1.31067347       0.69290702      -0.09877964      -0.43094689
Si       2.48207277       1.97832241       0.81681606       5.46000271       3.40115583       0.14123084
Si       5.19643308       2.24466470       3.72767954       2.54165903      -1.93733105      -0.28233349
Si       4.16133780       6.82807015       1.07948262      -0.94821246      -0.12427886       2.99317588
Si      10.41509634       8.80673923       4.35811476       1.93872475      -2.72345641       0.87070563
Si       0.93872945       5.63422737       5.28263138       2.45084796       4.17970440      -3.77445215
Si       9.96611881       6.48496307       4.28887186      -5.04104994      -0.42752885      -1.62087576
Si       1.54007847      10.89950184       1.64472185      -2.04552306       4.09225224       3.37360844
Si       3.74287126       0.69292781       4.72157052      -0.11964302       4.94179521       1.03179291
Si      10.13753422       0.46999737       1.54909554      -1.02713836      -1.14739958       7.38914230
Si       4.41055951       6.53565412       4.25350528      -7.12725675      -4.10891832       0.48532742
Si       4.69398840       2.48737043       1.45960760       2.52273813      -2.38974180       0.84745196
Si       1.03903571       3.29927158       4.96027578      -1.25680022       0.39879287      -1.72055773
Si       9.95995746       2.19875671       5.32502322       1.91723438       3.90266215       3.96957026
Si       8.91589662       1.65996192       3.23908824       2.62856327      -0.33854830       2.20346084
Si       5.27759736       4.79691781       1.69529070       5.77792876       8.14739568      -3.27472353
Si       7.14962112       4.65510927       0.37863785       0.60330398       0.45118800       4.30772433
Si       6.34362686       9.88238847       2.32733095       1.72194139      -0.41514592       1.79842540
Si       7.03035036       0.45530778       4.03284392      -3.59140307       5.44285471      -1.05480839
Si       2.28502316       5.95858250       3.34688507      -4.52146404      -1.39729103      -2.89835373
Si       2.75635985       9.89132067       3.50213270       2.62694008      -5.72939843      -0.64946689
Si       5.74024591       4.55335499       3.99010801       5.20907564      -2.05735535      -0.90862180
Si       5.68777752       0.45794827       0.58046186       0.91730582      -1.24592071      -2.00670230
32
Lattice="10.953064772841406 2.0414019778866393e-15 2.391532347210215e-15 2.041341254603979e-15 10.953064772841403 9.315213603459425e-16 1.1956332070866667e-15 4.658151368277192e-16 5.476532386420701" Properties=species:S:1:pos:R:3:momenta:R:3 pbc="T T T"
Si       9.35170020       5.51652451       2.15565403      -2.64178186       2.80134429       0.85133653
Si       3.67695163       2.09009043       2.45138934      -1.27288056      -2.78879090      -1.48706476
Si      10.06118673      10.25883958       3.74019277      -5.65540326       0.70779052      -0.60303177
Si       7.73881670       7.32759213       4.73403440       2.45929368       4.41249165      -0.47676308
Si       4.25897486       8.16081156       0.38995026      -0.83794491       1.11539892       1.04806960
Si       0.30712412       2.48712835       1.10029818      -1.51768473       7.13327984      -2.13106222
Si       7.95532510       9.73655535       4.45635291       1.02994257      -1.99645142       1.47794613
Si       3.55579397       7.07058022       2.39325983       6.30356310      -3.67991889       5.14062313
Si       7.35716386       6.33603827       1.30454408       3.83544199      -0.37115887       0.02208822
Si       0.29564246       6.81290569       1.65883477      -0.80835027       2.70196046       3.77364879
Si       1.61319948       1.97374685       4.68527752       0.86594006      -0.15868036      -0.89818177
Si       7.45022522       2.42427095       1.04808986      -1.64970540       1.33985454      -1.40834285
Si       5.88210421       7.89304944       2.14261813       1.47955307       2.38366646       2.89556751
Si       0.58349420       8.57395471       3.18299425      -6.69734206       0.77317189       0.02171271
Si       2.14629183       3.91079894       1.61652907      -0.36306116       0.38269849       1.06527217
Si       0.46975354       6.85081546       4.80260952      -1.96336341      -4.05586550      -5.88706355
Si       2.15398148      10.20269382       2.39160000      -1.00875675       1.36070800       0.30317002
Si       4.71060446      10.47146697       5.43406326       9.26213511      -3.20642607      -1.00243009
Si       0.48358604       0.96197248       2.90205102      -0.88582562       2.52385701       2.72739416
Si       5.36307945       6.88534090       4.20338910      -1.12135075      -3.95044027      -1.68433047
Si       2.72602870       4.06644817       4.73856087      -1.51942476      -0.47536989       2.54611985
Si       9.41605247       5.61608611       4.45926340       2.13879763      -2.65705287      -1.79936816
Si       9.37244315       3.74674806       0.61568855      -1.99080272       0.41862352       1.37808018
Si       5.93585673       2.80423960       2.89092521      -8.23618753      -5.41634222      -2.80221189
Si       4.33657195       4.84238714       1.88985742       4.37677119      -3.25379944       2.27647597
Si       6.22945694       4.37941013       0.64223190       4.58217844       2.26049335      -2.01281816
Si       6.91953882       0.17272553       0.58820117      -2.90684619       6.14067375       0.47843287
Si       6.49933411      10.06602325       2.61695010       2.73194130      -1.67985155      -1.00107479
Si       1.79631539       5.68260692       3.21717411      -2.53793897       0.44109217       4.75344214
Si       4.32288253      10.80113398       3.19106270      -1.10774012      -0.05641070      -7.34853960
Si       4.97425076       4.54740576       4.19153838       2.54720790      -2.24170765      -2.73126309
Si       2.91079399       0.70695350       0.66321761       3.10962498      -0.90883827       2.51416628
