32
Lattice="10.953064772841406 2.0414019778866393e-15 2.391532347210215e-15 2.041341254603979e-15 10.953064772841403 9.315213603459425e-16 1.1956332070866667e-15 4.658151368277192e-16 5.476532386420701" Properties=species:S:1:pos:R:3 pbc="T T T"
Si       5.23929626       0.15135377       1.11019074
Si       7.89923234       2.25915337       1.71014204
Si       0.19245813       4.93382789       2.00814444
Si       3.52075086       5.82446799       0.11713264
Si       3.36589646       9.66346927       1.33545992
Si       9.10859285       7.90187952       0.87592159
Si       3.21806987       8.01190362       3.00966242
Si       9.27194719       3.63282052       2.97644235
Si       7.06535219       7.91214014       1.98827210
Si       1.27519294       3.62632734       4.70590408
Si       1.14788127       5.86462443       5.41572602
Si       3.82157211       3.58269102       4.66525288
Si       1.09617295       7.82602553       3.92944359
Si      10.51023086       2.14449485       4.25858142
Si       2.54867827       2.45832877       0.85270275
Si       6.61357939       3.79207833       0.43240329
Si       9.28944443       9.89841000       5.14541428
Si       2.43201625       3.97637279       2.68151425
Si       7.56429099       4.84789391       4.02111220
Si       6.11108695       9.10749650       0.16416979
Si       8.69997344       6.83105010       4.33172907
Si       5.43500715       1.86685414       4.90070401
Si       7.39007156       9.62897904       3.73646441
Si       0.17252072       0.57229019       2.54015231
Si       6.24756676       5.56624439       2.15774258
Si       3.90663936       5.82572849       2.40788232
Si       0.52696499      10.05971454       4.37422480
Si      10.32616619       7.00401027       2.66013692
Si       4.06569664       8.10410081       5.15171134
Si       6.49482979       0.80619538       2.99298950
Si       9.58872358       1.01235893       0.70791142
Si       1.68977646       0.22085355       0.76327399
32
Lattice="10.953064772841406 2.0414019778866393e-15 2.391532347210215e-15 2.041341254603979e-15 10.953064772841403 9.315213603459425e-16 1.1956332070866667e-15 4.658151368277192e-16 5.476532386420701" Properties=species:S:1:pos:R:3:momenta:R:3 pbc="T T T"
Si       4.91701730       0.17382909       3.57560337      -0.75271231       2.28091445      -4.53635917
Si       7.22927740       1.95557241       1.86729510       1.79147271       0.41006721       1.81460071
Si      10.33740341       3.85272807       1.04693299       0.25661050       0.51726769      -2.08544643
Si       3.69135190       7.92753786       1.59550737      -0.10011917      -1.29228779      -2.89410815
Si       1.62421767       9.07616743       1.20487673      -1.43389257       1.19434027       0.17416858
Si      10.19270100       8.94703443       4.36726962      -1.02188780      -2.86262215       1.39907094
Si       3.96243813       9.01241571       3.63821730      -2.12316867      -1.71471764      -2.63722265
Si       8.59680796       3.74672433       2.68325793      -4.35925458       1.31281009       0.86963090
Si       8.43503946       7.39514394       1.83899022      -0.86588324       0.62565656       3.87196554
Si       1.96730017       4.00939744       3.98172885       0.79600562      -1.83615640       3.95278559
Si      10.94388579       5.92046561       0.17298656      -0.58494436       1.89488254       1.81746445
Si       4.00020213       3.74878862       5.06361945      -0.76356681      -1.12662690       2.31787434
Si       1.38816711       6.35422261       3.78805951      -0.72915808       5.32313091       2.27942392
Si       9.64319118       2.78390118       4.55714463      -3.30743275      -2.24371542      -3.86346972
Si       1.25993177       2.51344479       1.72119222      -1.23926124       5.21910714       1.43185449
Si       4.86377598       1.82036341       1.89563068       0.52046486      -0.39089916       1.68863257
Si       9.95690034      10.49922144       0.67533951       3.49140769       0.48114447      -1.07922377
Si       3.35404462       3.67362266       1.84668846       4.77866695       1.25390920      -1.23571822
Si       7.59449974       5.78596456       3.36643492      -1.79581062      -4.75301745       0.25536623
Si       7.32797359       8.67107799       0.15309344      -0.01641907      -1.78003600      -3.95781143
Si       8.92160359       6.97423982       4.96864457       0.85869099       0.64132920       0.92537049
Si       3.93234457       1.33604042       5.30447263      -3.22073041       2.40606122       1.81256624
Si       8.83758635       9.60921568       2.57716734       0.87931357      -0.03988939      -1.95521863
Si       0.77368485       1.94564611       3.94792110       1.48540538       0.47820705      -1.41824408
Si       5.30907337       5.61342526       4.22901056      -4.22378804       1.05568731      -1.54142762
Si       3.53432739       5.86638765       2.67669760      -1.07673697       3.09817965      -2.23755038
Si       1.67713253       8.67594414       4.36325211      -1.75388472      -0.12733546       7.03153190
Si       0.11126070       7.33227575       2.02183747       7.16562326      -2.15736935      -2.55217779
Si       5.16071717       7.75554996       5.26084592       0.02880606      -3.60684576      -4.53733538
Si       7.28397985       0.20660716       3.50717124       2.07567410       1.61145175      -1.83396589
Si       8.31987096       1.09207914       5.42170044      -0.01981971      -1.59097696       2.57846912
Si       1.64103601       0.63910472       0.28645802       5.26032943      -4.28165091       4.14450331
32
Lattice="10.953064772841406 2.0414019778866393e-15 2.391532347210215e-15 2.041341254603979e-15 10.953064772841403 9.315213603459425e-16 1.1956332070866667e-15 4.658151368277192e-16 5.476532386420701" Properties=species:S:1:pos:R:3:momenta:R:3 pbc="T T T"
Si       3.07286866       0.45891425       3.53572763      -1.98033279       2.71320505      -5.44026738
Si       8.43124783       2.65711475       2.23388608      -2.14766404      -2.18576748      -0.25366737
Si       0.97678692       5.79019915       2.21470376       3.69888441      -0.58586927      -2.42552648
Si       3.58796988       6.90767942       4.33331001      -0.64543193      -3.51581202       1.72024444
Si       3.57138179       9.60447963       1.91351212      -2.20562943       1.92438076      -0.56283574
Si      10.10081408      10.28891877       1.25593429       4.89028090       2.55541524      -0.11895346
Si       2.07007402       7.90729628       2.68937397      -3.18066604       4.04608735       0.77601446
Si       7.87188251       4.85648970       1.41329293       4.84151710       0.38140183      -2.98064961
Si       8.33808262       8.79149118       1.62631551       2.19774278      -4.38275249       4.18740937
Si       1.77454581       5.40645302       4.51773921       4.52743699      -0.56122025       1.79851241
Si      10.88420905       6.52502972       0.00485185      -4.96169678      -2.48100368      -0.95972665
Si       4.35460428       3.64931021       1.25356142      -3.38924480       3.04810801      -3.54374121
Si       0.42959429       8.52230553       4.25142790       0.52163202      -0.85967374      -0.86914531
Si       9.85928231       2.87093511       4.08549374       1.50238475      -1.25105467       0.38145636
Si       1.13962414       1.92782435       1.06656437       2.99287140       2.37331453       2.73029722
Si       5.57808119       3.39522926       4.75438784      -1.22390838      -1.26716772      -1.77951654
Si      10.16374323      10.49672276       3.67406551       2.22453634       1.56596623       0.88250454
Si       2.07265982       4.06984860       0.94220237       1.55109985       1.87440922       0.61842445
Si       9.18554356       4.99909721       4.95851435      -5.99357790      -2.09625356       0.20113518
Si       6.96039700       8.60372209       5.23147100      -0.21018964      -0.84790143       0.39804651
Si       7.61822373       6.57737074       4.20050364      -2.59132622      -3.93151061       0.95789086
Si       4.73366537       2.06561782       3.01662421       2.30604891      -0.76999595       2.76442256
Si       7.71490471      10.09729483       3.51673227      -3.60467195       1.29588112       2.62868712
Si       0.80822188       1.42045781       3.33477112       1.92002179      -1.16977269       1.41776873
Si       5.58538340       5.66081191       1.54996351      -1.07398669      -0.74629593       0.93884936
Si       5.49736225       5.59275804       3.85505502       0.13809050      -3.84905329       0.34869957
Si       1.22745891       9.33435670       0.78752809       1.33054509       0.61359589      -0.00517157
Si       9.15904216       6.64783027       2.36316862       1.09915205       4.27221688       3.20229930
Si       4.83151423       7.89022911       0.62990214      -5.08354851       1.42093777      -4.43386399
Si       6.76226675       1.04818149       2.49165832       1.25458445       2.32495999       0.52452720
Si       9.79498644       1.61223259       0.59611119       1.81023426      -0.55736231      -3.75055982
Si       2.63232116       0.19100189       0.35362908      -0.51518848       0.64858722       0.64643550
32
Lattice="10.953064772841406 2.0414019778866393e-15 2.391532347210215e-15 2.041341254603979e-15 10.953064772841403 9.315213603459425e-16 1.1956332070866667e-15 4.658151368277192e-16 5.476532386420701" Properties=species:S:1:pos:R:3:momenta:R:3 pbc="T T T"
Si       4.18927379      10.25742464       2.33682672      -0.44052705      -0.63465966      -2.01768928
Si       7.88664263       2.51259022       1.13378368       1.23567306       0.33383983       2.58050308
Si       0.96083647       6.29347487       2.09999836      -2.06988079       5.02542042       0.15176248
Si       4.19230468       4.35071499       0.91155395      -4.26331800      -1.28315795      -0.65841998
Si       3.12278028       9.32722422       0.43707923       2.72079387       0.61263836      -1.07882294
Si       1.06246212       8.45281491       1.22494139       1.41000897      -2.20065661       0.80509958
Si       3.26204084       6.70686122       2.94338422       2.27664212       1.45263778      -2.93108648
Si       9.18193653       3.48347860       4.87048411       1.83562120       2.73227627      -4.07303259
Si       6.86838581       7.45727997       1.37167328       0.68808895      -2.93144594       0.78853774
Si       1.61409085       1.80546215       4.53065212      -0.76494584       0.28336098       2.31291971
Si       0.16345991       4.92086022       0.25024967       2.47524949      -1.20669926       4.75695287
Si       2.24814456       3.99236669       5.11476668       3.02080467      -0.75769021       4.28743418
Si      10.55512100       8.46110771       4.90021536       0.19294054       8.14957587       0.52195413
Si      10.48493269       2.09895092       3.49584545      -1.67189230       2.00519905      -0.96090265
Si       0.35707681       2.58638718       1.24332924       2.41468067      -4.06047498      -1.19947753
Si       5.68472652       2.62453856       0.37959679      -0.93649318       0.61332245      -2.12008242
Si       8.60519167       9.77873175       5.00140500      -0.12202956       3.02802536       0.51835460
Si       2.46431248       2.68758142       2.26625087       1.33501970       4.24953725       3.06493420
Si       7.63375450       3.93910978       3.09066242      -3.45893056      -3.60866563       0.53901962
Si       6.97418780       8.05548624       4.46970563      -2.02557517      -0.96415663       0.14363468
Si       8.02213056       6.30497840       3.13048933      -0.04546141      -2.25943459       4.07706597
Si       5.50186135       3.05154302       3.60682507      -0.16334126      -1.36765894       1.86685124
Si       6.42696122       9.52819007       2.46016211       0.85458243      -2.79181778      -0.87021937
Si       9.58049645      10.95170491       3.18476993       2.39385343      -2.77865840       1.17966221
Si       4.71618496       6.59301147       1.13333685      -1.59513409       3.10918995       0.12891750
Si       3.64830972       4.45519837       3.28781426       3.63037682      -0.65645348      -7.14249049
Si       0.58276238       9.67092076       3.14341986      -7.94148160      -1.50991816       6.34238234
Si      10.33147992       6.35789683       3.89027396       0.17099904       2.51248334      -2.29734759
Si       4.45996392       7.83554374       4.67194340      -0.33778497      -0.35797064      -1.18715459
Si       4.48914527       1.56515173       2.02952637       1.33328342      -3.75056627      -3.65737115
Si       8.03148381       0.07703876       1.46039266      -2.19932924       0.29277016      -3.56769643
Si       2.53323767      10.63664461       4.05715750       0.04750667      -1.28019194      -0.30419266
32
Lattice="10.953064772841406 2.0414019778866393e-15 2.391532347210215e-15 2.041341254603979e-15 10.953064772841403 9.315213603459425e-16 1.1956332070866667e-15 4.658151368277192e-16 5.476532386420701" Properties=species:S:1:pos:R:3:momenta:R:3 pbc="T T T"
Si       4.45406252       0.46402993       4.95915521      -3.58502741      -2.51965553      -6.88660723
Si       7.39087920       2.45795297       1.38294811       3.96751406      -0.99922433       4.61778886
Si      10.28648918       4.75250231       3.03524550       0.36323844       2.82925756      -2.56757695
Si       3.93800645       5.22986370       0.62580185      -6.09925502      -2.95806435      -1.07858625
Si       3.72718595      10.33676206       1.42838315      -0.52247078       0.91130137       2.30380795
Si       8.58246324       8.48013051       1.51442959      -1.76321789       4.18071203      -2.51360613
Si       3.10011525       7.23092494       3.58946767       3.53970200       3.14854118      -1.95421252
Si       9.31070950       3.82274393       1.14228154      -7.32793794      -3.75257158       2.02316168
Si       4.93598652       8.73560127       2.67338057      -1.30516595       1.94330796       4.38091124
Si       1.02017996       3.51157176       4.04188027      -2.16589828       5.20750731      -0.36658033
Si       9.96784807       7.33799435       0.01617556       5.05840448       0.15542878       1.37485492
Si       2.97934541       4.87158730       4.04064844       0.44054737      -4.55403347      -4.22426170
Si       0.95503136       8.16863331       4.31898715      -2.50308742       6.03106113       4.53729239
Si       0.17971030       2.38815339       0.49763610       0.41977393      -0.12186832      -1.48139111
Si       1.89956162       2.33972460       2.21488630      -3.33999238      -0.31545222      -2.24793482
Si       8.97869825       5.30342823       4.85149255       7.19044449       0.53138519      -3.18958810
Si       8.36373054      10.40449099       4.45120665      -2.40370841      -1.68156784      -1.52570628
Si       3.93379976       3.59585720       2.24602816       1.58016230      -0.79686666       3.22466308
Si       6.85734875       5.58560007       3.88335832       3.84377030      -4.25326219      -3.71866980
Si       6.33707852       8.27824607       0.84668856      -0.66478623      -2.85724293      -2.21321684
Si       8.08496334       7.70645208       3.70346707      -7.29953121      -1.00786418      -1.06152318
Si       5.54062494       2.54050392       5.37921396       2.33247170       0.59362038       0.78483376
Si       6.09955127       9.74626354       4.46285888      -7.61394585       0.29803526       3.09013003
Si       9.54273655      10.40910852       2.44740690       1.36872699      -3.27338673      -0.20026897
Si       6.14300043       5.96753352       0.60007601       0.38153970       0.07091249       2.90113143
Si       2.40435438       6.83190714       1.42750239      -2.59816383       2.55778137      -0.02756710
Si       0.83968944       9.91715882       2.81051953       4.26093654       0.76643680       2.06967166
Si       0.16465730       6.68388747       2.08130785       0.26538853       1.52606765      -0.69806410
Si       1.88178881       9.03247420       0.84914202       0.31585229       1.74149489       0.73552358
Si       6.10121414       3.37167990       3.21954810       4.17245557      -2.96933583       2.61491729
Si       9.14674973       0.90123714       0.67432474       3.25152045      -4.02674757       3.15524150
Si       2.68811853       0.41626379       3.23653437       6.43973949       3.59429236      -1.85856797
32
Lattice="10.953064772841406 2.0414019778866393e-15 2.391532347210215e-15 2.041341254603979e-15 10.953064772841403 9.315213603459425e-16 1.1956332070866667e-15 4.658151368277192e-16 5.476532386420701" Properties=species:S:1:pos:R:3:momenta:R:3 pbc="T T T"
Si       5.44512634      10.50810515       0.16472705      -4.88352403      -1.89060322      -1.61112112
Si       8.43771203       2.33346791       1.06933300      -1.30306580       2.20829559       1.76886334
Si       0.31804391       5.91372331       2.64212296       2.82371858       2.77378180      -1.98699148
Si       4.87431728       6.81971451       0.01086790       0.36812970      -0.81515356       1.99745182
Si       3.67542569      10.21991385       1.75431825       3.29596807      -0.39593554      -2.40030278
Si      10.34640200       7.65381034       5.08446879      -1.09244787       0.01427495      -1.82873920
Si       2.15093260       7.39137453       2.79403879      -0.51227945       0.82149376      -1.37499962
Si       8.70643254       1.34634351       3.20757257      -3.84128853      -2.46086944       2.58347894
Si       6.81293530       8.26605297       2.97995729      -1.76404697       0.47180472      -0.34206440
Si       0.88013369       3.46437725       5.42605136       3.36892894       2.51416443       3.79048468
Si      10.57245677       5.42342948       0.48654992      -3.10312072      -0.18582319       0.72049277
Si       4.90693208       2.95119521       1.86984514       1.32734728       4.09077768      -0.41159256
Si       1.45623903       8.68392961       4.62667168       0.65126857       3.62496917      -0.48867748
Si      10.30481431       1.60087494       5.00904103      -5.39645201       1.37581930      -6.94652760
Si       2.41421087       2.71654643       1.70454402       1.58845975       5.38631072       3.71718455
Si       8.38445658       4.69224044       0.85924622       2.05928533      -7.43483937       1.01150389
Si       9.17602087       8.95425140       1.17490039       2.81336313      -0.57572929       0.21210543
Si       1.89321116       4.25998827       3.47169941      -2.28294372       0.50503439       1.68706104
Si       6.91831075       4.78868317       4.53181805      -3.19032221      -2.09209351       2.20399388
Si       6.82733139       8.60216622       0.60916711       4.13125469       1.57013449       2.04859442
Si       7.36821221       5.94582895       2.60228093      -2.24117637       0.99464313       1.28243020
Si       6.24716158       1.74114519       0.33696231      -2.83062828      -3.02114621      -2.73928883
Si       4.87163300       9.40714133       3.65668481       0.53310873       1.94973064      -2.10693295
Si       1.59490580       0.51620824       2.15125046      -2.69085187      -0.19466782      -1.83511473
Si       5.16271020       5.32703296       1.83721672      -0.83455865      -0.56086069       1.69514950
Si       3.71537825       5.83691272       3.62513127       3.98149872      -4.55564661      -0.65925885
Si       1.25551515       0.08087221       4.41373192       0.13957921       5.96724839      -0.67782642
Si       9.19243104       7.51875785       3.05984142       6.03649531      -1.25768317       1.56569948
Si       3.03878793       8.19591173       0.80142171      -4.39761922      -2.35674299       0.57705712
Si       6.52978904       2.61673468       3.68285737      10.78704741      -1.37699573      -3.20997089
Si      10.18638081       0.15793615       1.51815172      -1.47614451      -1.54498569       2.72456385
Si       3.12439376       0.97946888       0.01297915      -2.06498322      -3.54870709      -0.96670601
32
Lattice="10.953064772841406 2.0414019778866393e-15 2.391532347210215e-15 2.041341254603979e-15 10.953064772841403 9.315213603459425e-16 1.1956332070866667e-15 4.658151368277192e-16 5.476532386420701" Properties=species:S:1:pos:R:3:momenta:R:3 pbc="T T T"
Si       6.20501695      10.29838212       0.92183833      -3.04894856       0.93218935      -2.44133731
Si       8.09233727       1.00753232       0.56730351      -4.34428004      -5.17093030       0.43033001
Si       9.75545544       4.51976784       0.97481906      -3.74859916      -1.26481803       2.74786218
Si       2.98907352       6.10287793       0.93305101      -0.70460866      -5.76832879      -1.78105868
Si       3.95337221       0.04455388       1.62796627      -3.33538031       1.71252072       3.74770181
Si       0.31686093       9.14034881       1.61844845      -4.46845116      -9.85237893      -2.87575705
Si       5.39372650       7.08415655       3.78815804       2.56077723       2.82560065       8.16615341
Si       9.42327893       2.37519563       1.96611374       2.24918804       2.43090028       4.46961963
Si       6.71090637       6.65942680       1.81949161       1.98596260       1.20411450       0.55001582
Si       1.48557286       2.91793099       4.22051927       4.94534398       0.63496367       0.66360129
Si       0.97812909       4.87199713       0.03275813       0.18980613       4.35174164       0.54294787
Si       5.14740322       3.29834444       5.34408092       3.96518399      -0.96818788      -4.65483481
Si       1.14086642       6.74910898       4.12317060       5.09127987       0.89093823       1.87277728
Si       1.07607796       1.00669641       0.05461142       0.12682380       6.90731041      -6.58700591
Si       4.77416113       2.25446922       1.91560949       1.11500543      -2.81933749       0.49284256
Si       7.32356651       2.75836961       4.66435097      -2.87828280      -2.17063292       1.39892947
Si       8.68861607       9.15360735       4.28682378       2.07639355       1.10186898      -1.30616283
Si       3.65448862       3.55358868       3.56725638       0.12908855       0.04495152       0.24165450
Si       8.18387737       4.93241207       4.73378482      -5.10460310       2.98676004       0.61777130
Si       6.78949724       8.23551731       0.00454778      -2.13870010       1.91937957      -3.25696606
Si       8.79563528       5.88829063       2.62920915       1.77576841       3.79402189       2.32469836
Si       4.98537104       0.19918480       4.43666191       2.10516893       2.92314909       0.27397643
Si       6.91742120      10.41230481       3.18900283      -4.08245149       2.25928444      -2.61612202
Si       0.69267253       1.69394093       2.35678511      -2.01705057      -6.96222119      -0.45049611
Si       5.29033437       5.60628889       0.23857943       3.24791256      -3.12845824      -4.45671289
Si       3.24220701       5.94174867       3.22724459      -1.38144730      -2.20591131      -4.30429181
Si       1.84844638      10.59159502       2.76117250       0.24736038       0.96010555       1.83994643
Si      10.17714309       7.71611296       3.12311472       7.98065804      -1.06296737       4.51889054
Si       2.01184042       8.18872929       0.26622980      -4.62184147       1.01658447       0.46289578
Si       7.04802552       1.75315650       2.62239071       1.19142887       2.89489418       0.57066355
Si       9.99157780      10.59409065       0.18409238       2.08984204      -2.01365820       1.54424293
Si       2.75271995      10.31747693       4.97626397      -1.19834769       1.59655147      -2.74677567
32
Lattice="10.953064772841406 2.0414019778866393e-15 2.391532347210215e-15 2.041341254603979e-15 10.953064772841403 9.315213603459425e-16 1.1956332070866667e-15 4.658151368277192e-16 5.476532386420701" Properties=species:S:1:pos:R:3:momenta:R:3 pbc="T T T"
Si       4.99441447      10.33996983       0.52196408       3.99877112      -3.29046547      -1.79580094
Si       7.11493511       2.04394685       2.73400411       4.07549414       4.35663150      -1.50389819
Si      10.23027785       4.33451164       1.53524949      -5.64098925      -0.76029268       0.22257414
Si       4.19392090       5.35362145       1.29465018       2.00709184      -2.42732027      -8.10412616
Si       3.45299036       0.49458709       3.18069241      -3.04864307      -1.11676284       2.89467281
Si       8.53973512       8.66501797       2.23669635      -4.15375935       5.95132755       7.03694514
Si       2.74562113       7.57684642       4.14920307       3.56599739      -4.73667861       2.44732958
Si       8.57639603       1.99803909       4.60021939      -1.21623601       5.19103310      -1.05503498
Si       7.69782095       6.47055620       2.61987160       7.61924309       2.33010995       1.62610812
Si       0.28561855       4.61324668       4.95196437      -2.23077186       4.35527619      -4.99261016
Si       2.58728164       5.32765911       4.87784331       0.87078045      -1.42664043       0.01015332
Si       4.82065804       2.34920679       3.50003128      -1.38213668      -0.21640459       3.31231697
Si       1.19580877       9.22258599       3.45876615      -3.20509375      -3.14547663       1.69663083
Si      10.94338729       2.30906595       4.18802608      -1.96593359       0.53127411      -0.71593333
Si       2.22814760       1.17078091       1.18588019      -1.41172175       0.56866636      -2.58554439
Si       8.04150167       3.42456446       0.97611474       3.42504850       3.25571338      -2.70962872
Si       9.97838087       9.21781598       0.44109409      -3.85555218       1.07752595       0.70271300
Si       3.22262943       4.02234148       2.98246866       0.46224614      -1.56601467       0.20501534
Si       6.25933882       6.90786337       4.39750490      -2.04283862       2.88759319       5.19294348
Si       6.56766314       9.29361367       4.62560083       3.50820302      -0.04649561       2.24592345
Si      10.15599224       8.12224721       3.85545448       0.52232553      -5.17682737       3.40326157
Si       4.46138620       1.67367816       0.34664991      -0.63407444      -4.31045395       1.59969143
Si       5.09887816       9.77593947       2.80970354      -3.10687775       0.83911247      -2.20005345
Si       1.13309842       2.96923215       2.24350802      -3.84109746      -3.37367288       6.04305413
Si       6.57967167       5.37969185       0.80828458       3.26747905      -4.57570910      -1.36166984
Si       4.31939189       7.49082112       2.44264654       3.76833694       0.39198384      -0.05505483
Si       1.45463855       0.43719634       4.52872941      -6.69043710       0.20456250       1.54148158
Si       9.92128310       5.82042749       3.35404908       4.13271314       1.56566205      -1.33434326
Si       3.26642679       8.72875733       0.62418475      -4.90508278       1.67261803      -1.76392292
Si       7.20226126      10.69362972       2.06234029      -0.65176376      -0.39126586      -1.61128450
Si       8.28024891      10.76395270       5.41292362       6.65829176       1.77311188      -0.90075976
Si       1.23893904       9.82885443       1.18219596       2.10098730      -0.39172109      -7.49114946
32
Lattice="10.953064772841406 2.0414019778866393e-15 2.391532347210215e-15 2.041341254603979e-15 10.953064772841403 9.315213603459425e-16 1.1956332070866667e-15 4.658151368277192e-16 5.476532386420701" Properties=species:S:1:pos:R:3:momenta:R:3 pbc="T T T"
Si       4.08644539       0.78196238       1.17401910       1.35279516       0.64275487      -0.62730906
Si       8.24173262      10.77405953       1.61672965      -6.04504844       3.75847085       5.34534022
Si      10.31146207       4.90154511       1.18885714       1.85347752      -6.27032027       0.06856064
Si       2.32726915       6.60272235       1.66082294       5.26725070       2.02671453       0.43020723
Si       3.31824068      10.23885006       2.82623006       1.70637239       0.83464920       1.91034922
Si       7.60661704       8.62501073       0.77474419      -2.13583025      -2.06956748      -0.78416901
Si       4.05443257       8.15441799       1.97023580       1.90351753      -1.81219777      -2.15417220
Si       8.24021015       3.32633775       4.18713533       4.69666726      -3.96437702       2.13350069
Si       7.61604333       7.17546437       2.66141349      -5.46669566      -1.69067753      -0.12550365
Si       1.19836514       3.24803170       4.11949392      -1.06241855       2.72913018      -5.63544660
Si      10.59314506       6.51987492       4.86587189      -3.54207841       0.79558716       4.24625515
Si       5.07274043       3.65253574       5.07429943       2.54429635       1.30680321       3.86698879
Si       1.20161088       7.97573443       0.19974455      -2.16098610      -3.66924813      -3.17320799
Si      10.24072549       2.83942755       5.42278721       7.15474498       1.65429791       3.67055517
Si       2.52712663       2.52523292       0.59101376       2.32513995       4.58633412      -4.12500139
Si       6.34230693       3.67318349       1.73152588      -4.25215813       0.62771876       2.37011875
Si       9.67493177      10.21650123       3.47606566       0.67169879      -2.86359746      -0.38862530
Si       3.45535705       4.57612202       1.19783859      -1.72980897      -1.62032993       4.67424857
Si       7.11774504       5.02164406       5.41078342      -3.12248527       3.86369447       2.05566887
Si       5.37839270       8.52340787       0.00214923      -1.12571291       1.64081836       3.09587595
Si       8.94649944       8.10868657       4.33795628      -8.01790642       2.53410279      -0.14913855
Si       6.25175512       1.64693055       4.27513483      -0.04727017       3.80466609      -5.50455650
Si       4.73355464      10.65747617       4.68686029       4.61958329       0.61757729      -4.04024573
Si       0.87970497       1.99813743       2.18613573       0.26638270      -1.91915087      -2.22942100
Si       8.25323262       4.93463389       2.26648465       7.67842892      -4.77112282      -0.04615747
Si       4.82341644       4.84052121       3.10040209       5.72482812       4.69532328     -10.34714520
Si       0.97300743      10.65934127       2.71811779       0.66041578       1.18026317       3.97949882
Si       0.78245001       5.41058020       3.08808144      -3.81645965      -3.40336524       0.88658565
Si       5.43010923       7.10389905       3.53144137      -3.56977574       1.13292801      -1.74632097
Si       6.33849602       1.33887459       1.91685321      -1.71179381      -2.35372712      -0.30824408
Si       9.83124600       0.49551236       0.00075720       2.83822448      -3.99777643       3.22867082
Si       0.94037193      10.27360944       0.39199695      -3.45739543       1.97362384      -0.57775982
32
Lattice="10.953064772841406 2.0414019778866393e-15 2.391532347210215e-15 2.041341254603979e-15 10.953064772841403 9.315213603459425e-16 1.1956332070866667e-15 4.658151368277192e-16 5.476532386420701" Properties=species:S:1:pos:R:3:momenta:R:3 pbc="T T T"
Si       4.18829019      10.89152940       0.71292530      -0.33452533      -0.75778649       0.04838786
Si       7.30672370       1.98255318       1.85162507      -2.27727471       2.94920610       0.59823918
Si      10.30322412       6.00256622       2.05967453      -0.61862577      -0.77322881       1.58552408
Si       5.14682055       5.15094559       0.13764991      -2.82736669      -5.99739208       4.36164901
Si       3.69921967       8.61829606       1.19004663      -0.49411026       7.44343318      -1.52727051
Si       8.91833644       9.50030051       2.57877823      -0.39117778      -0.54076018       0.01126293
Si       3.56900618       7.99482546       3.39083129       0.83330600       0.72262365       0.62448746
Si       8.56955686       2.21550920       3.79947390      -0.51316755       2.82023774      -7.00328475
Si       7.19671536       7.82817020       2.37882467      -2.08279875       0.30450158       2.94391055
Si       0.70175783       4.75408005       3.42385138      -0.25218206       2.36006897      -3.87919702
Si       2.00651643       5.76724321       5.08949858       4.50307004       1.87235775      -2.14522880
Si       3.22239049       3.85647545       0.27748397       4.10129802       2.92391769      -3.02418120
Si       1.56125328       7.90039734       0.56497606       2.71397656       2.45763559       3.08087340
Si      10.75701375       2.71359662       4.53303877      -0.20366459      -1.94619383       5.13075793
Si       0.31438394       1.22544796       0.82606902      -1.93668219      -0.33587692      -1.85652595
Si       7.06266069       4.19618185       1.05719456      -1.85328058       0.01138378       4.01202104
Si       8.17097161      10.92744565       4.42687078      -1.82696767      -3.13655720      -0.96913441
Si       2.68576774       3.88236618       2.52270378      -1.71254351      -3.04660788       4.05563819
Si       8.28818296       4.41066756       4.59744481      -5.16234556      -5.00057303      -0.30744879
Si       5.73705650       8.46476363       4.07160180       3.89714333      -6.25564538      -3.04735222
Si      10.41867716       4.90937144       5.45801350       2.30243177      -2.64325860       3.70895359
Si       3.44671007       2.18355549       3.94760162       2.54322895      -4.21999368       3.95012945
Si       5.81990615      10.73233675       4.44169221      -4.91391302       2.31285335      -1.83455634
Si       1.27054232       1.86056432       2.89944946       1.49783332       4.43660625       1.47135229
Si       8.04387526       5.66227831       2.63629271       1.98434858       1.58443014      -2.41450010
Si       3.95333387       5.65235329       3.56861142       2.32747834      -2.16725676      -1.31838316
Si       1.58068315       9.08043003       4.06022458       4.80758344      -0.95554173      -2.56111852
Si       0.04449734       8.29219647       2.39442484      -1.48953653       0.51893698      -5.31533155
Si       5.62612731       7.40900498       0.65094045      -1.78113827      -2.29207183       0.20942500
Si       5.14442656       1.09201170       2.59447785       1.28285023       6.12191732       6.09327410
Si       9.01204624       0.35593313       1.06973692      -1.08296262      -0.65640747      -3.46056920
Si       2.06900546       0.35380695       4.91648686      -1.04028516       1.88504179      -1.22180354
32
Lattice="10.953064772841406 2.0414019778866393e-15 2.391532347210215e-15 2.041341254603979e-15 10.953064772841403 9.315213603459425e-16 1.1956332070866667e-15 4.658151368277192e-16 5.476532386420701" Properties=species:S:1:pos:R:3:momenta:R:3 pbc="T T T"
Si       5.51260908       0.07407286       1.81992242      -3.13563982      -7.35738532      -5.44258623
Si       8.61566241       3.60441849       1.38795351       0.85422589      -1.46878284      -1.11548951
Si      10.64859942       5.42973777       4.02663639      -3.56205406       2.11291566       3.08285422
Si       3.56656151       6.04912482       0.24746759      -3.60296943       1.62771343       4.92720025
Si       2.23180906       9.22850329       1.44353538       0.87122938      -2.07123947      -2.39264643
Si       9.74264745       9.05062065       2.54493111      -1.29167785      -0.99057598      -4.09743222
Si       3.34349959       8.11346768       3.14843710       5.23592224      -0.60503276       0.20853294
Si      10.08282551       3.29444486       3.18386612      -1.91700068      -0.83118112      -1.22631282
Si       5.55745134       8.80374489       2.66537723       0.89511782      -4.97622130       0.31431110
Si       1.69635577       4.69864261       5.12261658      -0.95744017      -2.53712438      -0.92969740
Si       0.92705536       7.53898762       0.39416504       1.71606303       0.54789250       3.94217324
Si       5.39763900       4.54307841       5.36983144      -4.99344027       2.85651387       0.47064070
Si      10.35591376       9.12387190       4.84782880      -1.66282985       1.29828303      11.44803297
Si       9.19168586       2.00777045       5.23313014       3.22678073       1.69175527      -5.19549057
Si       1.16810932       3.29488229       1.57134845       2.81678256       3.60118954      -1.59615155
Si       6.35716325       3.94336796       1.91682857       2.30232266      -1.61168723      -7.11990570
Si       8.35701011       9.42380604       0.64314206      -4.88153170       1.47969657       0.55617972
Si       2.81556263       3.86353714       3.18181266      -5.97865214      -2.28321863      -6.83245512
Si       7.06909785       6.09812516       4.78801045       0.83482432      -0.69469718       7.47042625
Si       6.52711166       7.88940914       0.66717976       2.92454213       6.13627542       4.78869262
Si       9.14161376       5.65073266       0.34228810       2.65387546       1.21366602      -1.61240465
Si       4.99613771       3.02912957       3.62425677       5.73956711       0.74838108       5.22524543
Si       7.29667735       0.52433686       0.14047331       3.94970182      -2.81115403       2.28057618
Si       0.58953817      10.59900326       2.40572963      -0.92480527       6.68401354      -5.04949511
Si       6.26214484       6.23208827       2.57222886      -4.11907043      -0.96387482      -2.19173318
Si       3.84907406       5.93361403       2.54311697      -2.44274782       2.60048975      -1.37799237
Si       1.35569059      10.83067608       4.65289265       3.67730642       0.71239250       1.69972184
Si      10.33132974       6.82421209       2.06245455      -2.94430124       2.11386740       0.72285320
Si       4.33980352       8.39472252       5.24611550      -2.85750112       1.16098854       2.19070311
Si       5.43094475       0.76837850       4.07702489       4.25129093      -5.32228983      -3.25616580
Si       0.30293108       1.26993954       0.72420875       4.32275497      -2.16801240      -1.91708303
Si       3.72848846      10.68982154       0.05717230      -1.00064563       0.10644320       2.02489791
32
Lattice="10.953064772841406 2.0414019778866393e-15 2.391532347210215e-15 2.041341254603979e-15 10.953064772841403 9.315213603459425e-16 1.1956332070866667e-15 4.658151368277192e-16 5.476532386420701" Properties=species:S:1:pos:R:3:momenta:R:3 pbc="T T T"
Si       5.38892967       1.81185254       1.64830733      -2.93913157      -2.04600977      -4.58580104
Si       7.73430717       1.89786676       1.48894135       3.09111191      -0.98053574       3.29892107
Si       9.94642502       4.66805248       1.86662095      -2.43696153       0.54858041       0.03936509
Si       3.43919608       5.63901880       5.03798745       0.58478343      -0.02492579       2.92021097
Si       2.89464828      10.21892175       2.42463126       1.81713099       3.70362925       0.72169300
Si       8.50179973       7.58764185       2.01092082      -1.32507755       0.26989946      -1.67997777
Si       2.93391882       6.80664522       3.02764522      -2.78760787       1.83547909      -3.54852515
Si       8.39718810       3.45541396       3.14416683       0.31037600      -4.48969014      -0.76395710
Si       6.72910636       7.46847114       3.59167499       0.05537336      -3.20508917       7.63374713
Si       0.00558232       3.63399411       5.39976998      -0.01821342      -2.25992556      -0.61102770
Si       1.06242401       6.48031487       1.54518338       2.23858495       0.84792932      -1.20432707
Si       4.91295595       3.95630828       4.51457854       1.28100709      -0.87818118       2.21611284
Si       0.55936935       7.89254991       5.08437309      -2.15515693      -2.66951156       8.07159810
Si       9.22046909       2.16535452       4.92442481       3.15932299      -0.37560839       2.67046859
Si       1.79185934       2.28342941       0.70508322       4.85669787       4.18082928       0.19371128
Si       4.63379009       3.96391147       2.22034699       0.50336026       7.74418444      -5.84872467
Si       8.30807887       9.54482942       0.72712670      -0.27078489      -1.74065051       2.19929715
Si       2.45184770       4.47752674       1.41266263       4.45811378      -2.13969338      -1.44721836
Si       7.01326364       5.05028870       4.23597207      -0.64730862       1.66654222      -7.10988924
Si       4.12408257       9.27365883       0.50108572      -0.69392433      -4.29309976      -3.37398051
Si       8.11972652       5.65671814       0.72772116      -5.39595294       1.01180010      -2.37043918
Si       4.03160446       1.86484449       5.20552967       3.73374224       1.26354058       4.87933910
Si       6.58144580       9.81345323       4.31524718       0.96694899      -0.76974387       4.32816299
Si      10.20256054       0.35157578       3.68044630      -3.62879390      -0.56911475       0.72887202
Si       6.15868292       5.77184513       1.98193994      -5.57786645       1.41378185      -6.03407947
Si       4.39266808       7.05556311       1.19122217      -4.88316004      -4.15456181      -1.56517348
Si      10.56965934       9.99788009       0.14124653       6.70887740       6.89774608      -3.65539792
Si      10.40189995       6.76193829       3.20424572      -5.01745419       4.16517201       2.35449833
Si       2.58926577       8.75505504       4.23329581      -1.58683436      -2.22544242      -0.10537976
Si       4.71713608       0.38832596       3.45652399      -1.01235632      -5.37749634      -0.41071444
Si       8.12286326      10.82389117       2.66158104       5.02200163       1.87540600       2.61453306
Si       0.85198906       0.35006297       1.81801263       1.58915203       0.77476003      -0.55591785
32
Lattice="10.953064772841406 2.0414019778866393e-15 2.391532347210215e-15 2.041341254603979e-15 10.953064772841403 9.315213603459425e-16 1.1956332070866667e-15 4.658151368277192e-16 5.476532386420701" Properties=species:S:1:pos:R:3:momenta:R:3 pbc="T T T"
Si       6.34630469       1.89671504       1.31423947       1.71408311      -0.31252196       1.60100022
Si       8.07309885       1.90901409       2.95841000       1.20350190       2.68962903      -3.60363813
Si       0.65366233       5.75278132       3.08398071      -6.86833959      -0.59462242      -4.38976919
Si       2.77384356       8.67956206       0.41375163       2.17520513      -1.27413858       7.26638691
Si       2.96297992       0.13076766       2.92434460      -4.88953463      -1.83567363      -1.00042291
Si       9.49654090       7.72323315       1.04777033       0.53841634       1.35280593      -4.52588508
Si       2.81811417       8.67993890       2.77253265       2.59053440      -0.07280323       1.55495834
Si       8.50350911       4.07872191       3.76482231       8.92322666      -4.77278127      -0.96380530
Si       6.54225400       9.33733668       2.31875833      -2.14259925      -4.33998371      -2.20716572
Si      10.58004552       4.38561594       4.75251875      -2.20216013       1.65015501      -2.06283629
Si       0.36691849       6.22686246       0.54776838      -5.96224890      -2.24750303      -5.32968839
Si       3.76078440       4.14334425       5.03220830      -0.85811152      -0.99381258      -0.51979486
Si       1.25644802       7.75741024       4.30078683       2.34720132      -1.44709668      -2.00945298
Si       0.87234572       2.55958818       5.46626360       2.43738178      -0.61066634      -0.96336270
Si       3.01644954       1.89241136       4.61844565       2.78655131      -3.14977172       1.25822107
Si       5.52006261       4.10199994       1.13688851      -2.07241583       5.30669441       0.21840787
Si      10.36185427       9.15476507       4.72916520      -4.34758946       2.21946163      -1.73156311
Si       1.92688341       4.50331958       1.26028769       5.22911750      -4.55588858      -3.50088266
Si       6.75970055       5.18529088       4.88638174      -0.39751022       2.97057309       0.38181443
Si       6.75655652       9.28816802       5.42021699      -1.71552795       0.90700720      -2.31048606
Si       7.96451130       7.25599377       4.82601417       0.29676440       3.22542762       1.74926881
Si       6.79188295       0.72580303       4.72074056       2.08956101      -1.53027748       5.67702089
Si       8.99165934       9.35402314       2.75557601      -2.56488150       2.43119618       3.40930396
Si       0.76991990       1.04946512       3.60595596      -3.86219370      -2.24172570       2.01935676
Si       5.04236223       5.22648272       3.21759388      -3.01695376       1.97968617       0.20512409
Si       4.92141466       7.61400988       2.97465185      -0.93663577       0.04004924      -0.89448362
Si       0.18217336       0.23693092       0.28478719       1.59612779      -0.42570191      -1.38882566
Si       9.18479093       6.21843056       2.91615115       2.26408410      -1.76170778       1.22664356
Si       4.90496243       7.82202424       5.32209924       0.18114184       3.35743552       3.81590594
Si       5.33175322       0.40308132       2.84886757       3.28194638      -1.31475687      -0.33512347
Si       9.88479620       0.57339298       2.24004212      -1.35732237       3.03340149      10.46250182
Si       2.51709608       0.09459021       0.61955886       3.53917962       2.31791097      -3.10872856
32
Lattice="10.953064772841406 2.0414019778866393e-15 2.391532347210215e-15 2.041341254603979e-15 10.953064772841403 9.315213603459425e-16 1.1956332070866667e-15 4.658151368277192e-16 5.476532386420701" Properties=species:S:1:pos:R:3:momenta:R:3 pbc="T T T"
Si       4.86394362      10.11330960       0.80717881      -4.56211195       0.03862657       1.07713730
Si       8.25398397       1.02502169       2.21468254      -1.77204338      -1.12047882      -2.16801520
Si       0.17747270       5.42355917       3.86827761      -0.33977827      -2.82648399      -4.43038234
Si       2.32384488       7.64936224       1.35712909      -0.90839125       4.12143206      -0.00414781
Si       4.97269709      10.53478756       3.14221600       1.76456328      -6.65310047      -0.89648354
Si       9.86531377       7.69002401       0.35761295      -2.51228753       1.06439678       0.45227640
Si       3.67200905       7.16238120       3.23105863       1.12507778       0.78594774       1.41502612
Si       8.34117090       4.32183821       1.24537449       2.42258407       2.82876887       4.14439427
Si       8.00832383       8.93678126       1.03212348      -1.15780941       1.46347431      -3.78300220
Si       0.33317320       3.10784734       3.30549451      -1.77993470      -5.04000845       3.58374382
Si       2.33995434       6.07019867       4.85152814       3.21902143       3.21781456      -0.70557801
Si       3.59983129       4.04225726       4.73579763       0.25170243      -1.16694819      -0.29619581
Si      10.73454520       8.90118790       3.95189056       0.38210478      -3.65032682       1.79979450
Si      10.50821771       1.52316944       4.98799714       2.76175950       0.93803749       2.81504163
Si       4.18874196       3.88866463       1.50923851       3.13052724       1.86512771      -2.02966451
Si       6.32538532       3.18064061       0.81282916      -6.44545603      -1.24169213      -5.32152076
Si       8.45155081      10.91049555       5.09390249       1.35206280      -1.48290725      -3.58944653
Si       2.66272777       2.72015703       2.99623522       2.18283374      -0.53474533       3.34092782
Si       5.88108230       3.65921630       4.01793105       2.73644390       0.10030218       4.94509820
Si       6.46910046       7.28177339       0.28569990      -0.54684923      -2.90875256      -1.54135906
Si       8.94392170       5.73445142       4.92227405       7.20040598      -0.92141283      -0.00741833
Si       6.46295610       0.87632343       0.46650034      -2.93348980       2.48146313       1.25934951
Si       8.78240469       9.84141298       3.03756377       0.21895949       2.92827045      -0.84030596
Si       2.72021435       0.34469182       3.02530988       0.81408551       6.55508652      -0.65099406
Si       7.34953719       5.30324097       3.18345795       2.25459074      -1.96818035       0.53943200
Si       5.34788939       6.01439398       2.04710328      -1.54132888       0.78327553      -0.13503462
Si       1.16179214      10.70660696       4.69146875       2.36924029       2.80978917       3.38205162
Si       0.22843343       7.25657770       2.29440761      -2.55061685      -3.62054837      -2.72934995
Si       5.03324510       8.60725485       4.48484218      -4.87445127      -1.44498118      -6.02601775
Si       6.41044611       1.38618641       3.62584214      -1.12004590      -1.41893944       0.12909426
Si       9.87664250       2.57539090       1.52514142      -0.14465265       3.58183324       2.39288367
Si       2.49819109      10.03106448       1.02040618      -0.99671588       0.43585985       3.87866531
32
Lattice="10.953064772841406 2.0414019778866393e-15 2.391532347210215e-15 2.041341254603979e-15 10.953064772841403 9.315213603459425e-16 1.1956332070866667e-15 4.658151368277192e-16 5.476532386420701" Properties=species:S:1:pos:R:3:momenta:R:3 pbc="T T T"
Si       5.64503511       0.55335494       0.81737181       0.61111154       1.18547421       0.60111585
Si       7.09094605       1.47090293       2.44788893       0.00358243       3.39683679       3.72440980
Si       0.84492105       4.24865014       1.85390171      -1.40058115       4.16124542      -2.18563585
Si       2.21404945       5.17759170       0.24458752      -5.54737084      -3.65479339      -2.42198093
Si       3.81924691      10.27325054       1.76392925      -0.97650192       0.50221572      -3.88565008
Si       0.30417869       7.76491201       1.15824956      -1.15747713       1.57534468       2.23677037
Si       2.58830245       8.27456718       1.37548406      -2.65460749       4.89464888       2.48426769
Si       8.71522126       5.02995887       2.86115976      -1.89418722      -0.01815255       1.27587157
Si       5.84057695       6.58764184       0.70956224      -1.49615656      -6.50307132       0.59173160
Si      10.10126440       3.07345218       0.73792387      -3.16250458       1.37325850      -1.13306024
Si       0.14746333       6.12605501       5.01329177      -0.79016322       5.42418093      -2.29315148
Si       3.40128239       3.65435255       4.47080970       2.94125579      -0.32805854       0.19241591
Si       2.76561106       9.69562835       4.99672787      -1.57566319      -2.04536979      -0.62077786
Si      10.83381799       1.82851526       4.39891107       2.87707124       2.33683455      -0.02498791
Si       3.97456038       2.22821110       0.70794068       1.08534648       4.38259138      -3.23404023
Si       6.55554731       4.50110130       5.44098189      -0.67417716       1.21184626      -1.82158570
Si      10.06645034       9.58433772       0.42326484      -0.83836163       0.91468842      -1.40893168
Si       1.73607322       2.65627407       3.27015774      -5.95711866      -1.83548982      -2.93912432
Si       5.13440357       4.83763806       3.43183466      -1.87758832      -4.75946015      -0.69046320
Si       6.37714454       7.97671097       4.41889917       6.26419985       1.47147204       3.97397643
Si       8.91696533       4.83775734       5.27429502       4.87880761      -5.66498236      -5.10946216
Si       5.76561503       3.29500580       1.83262529      -0.45602178       1.32564786       2.64482296
Si       8.15928584       9.44618106       4.65720970      -2.95566965       0.36861606       0.04948908
Si      10.94666714      10.92421546       2.11621375      -1.84663114      -2.39383068      -2.89226153
Si       6.87852443       6.45786191       2.75486704       0.90109247      -3.92582824       2.44580824
Si       3.74270573       6.27997049       1.63357852      -1.67871019       3.29797639       1.95209290
Si       0.62712017      10.53062092       4.37121866       1.98456778       2.25358022       1.17852021
Si      10.73658363       6.16565152       2.74638912       4.05336337      -4.41122786       1.38161622
Si       4.73701935       9.56748789       3.77878055       7.08666809      -2.86833702      -0.00946756
Si       6.53480100       0.10767161       4.22744264       2.71557202       0.64293024       3.28752357
Si       9.41342582       1.72040296       2.48946024      -1.61045426      -0.01928960       0.18781706
Si       2.17393407       0.99127049       1.70355683       3.14730742      -2.29149720       2.46233128
32
Lattice="10.953064772841406 2.0414019778866393e-15 2.391532347210215e-15 2.041341254603979e-15 10.953064772841403 9.315213603459425e-16 1.1956332070866667e-15 4.658151368277192e-16 5.476532386420701" Properties=species:S:1:pos:R:3:momenta:R:3 pbc="T T T"
Si       4.07521734       0.74134874       1.25455819      -2.24177712       0.87997348       0.89040941
Si       6.66991116       1.98900792       1.74844041      -0.31039833       0.21402939      -1.34948709
Si       9.56343722       5.65983611       2.39479708      -4.91799934      -3.26864425      -0.38480258
Si       3.09882559       6.21238432       4.81974298       5.59561902      -3.88846599       1.05381125
Si       5.20476698       9.53900351       3.87759383       1.15023593       1.04903151      -3.18908336
Si      10.14771356       9.20010668       1.37792748       1.09341924       1.66290785       0.71555053
Si       3.17131832       8.78999569       2.86300559      -2.34272346      -2.66228105      -1.05548987
Si       8.27686840       2.59674185       3.38423509      -1.97204278      -5.19650004       2.62652150
Si       6.17028196       6.61265958       0.61290168      -0.04910212      -2.83788698       3.20291922
Si       0.74077122       3.67047977       4.77238406      -1.97122190       1.20363206       4.30310213
Si       0.28205820       5.95344733       5.26636175      -4.03041732      -6.25726131       2.02800996
Si       4.46611791       2.64301304       3.86011507       2.99396607      -6.18207131      -5.30323443
Si       1.40794342       7.61821569       3.92484086      -6.66819465       2.55679708      -2.64587804
Si      10.42127067       3.50227928       2.69679577       3.59544088       1.06716064       1.98147234
Si       3.04948217       3.87330679       5.20719168       1.45035559      -0.39297998      -0.70363335
Si       8.17826768       2.94168995       0.21341294      -0.18527345      -0.81877901      -3.81261636
Si       8.73093542       8.75123397       5.01095405       3.95547994       0.19150885      -1.46927294
Si       4.53828470       3.17127330       1.60737100       5.71332734       2.93529126      -1.17949278
Si       8.06127769       5.25509753       0.65254432      -3.85826423       1.21688211      -2.85258927
Si       6.51839714       8.96651824       0.32168918       1.38438461       4.21996186      -0.83139095
Si       9.11279545       6.49951466       4.49947072       1.96863439      -2.59675882      -3.48034273
Si       3.85453655       0.47389870       4.44732261      -0.80378771       5.18646485       1.29198227
Si       8.63245456       9.96792845       3.04147508      -0.17323501       3.44888933      -2.44948766
Si       0.23659158       0.33659920       1.85211071      -0.24365194       4.29144893      -1.66953718
Si       4.72308098       5.58254878       2.10870766       2.45691678       2.56861724      -0.25824743
Si       2.80644877       6.88531558       1.56624460       2.74051388      -3.12697645      -0.35566484
Si       9.86310376       0.90124393       3.75697393       0.56102393      -5.89064807      -0.93345644
Si       0.33775073       7.16236541       1.84686401      -2.51456725      -4.53479439       3.08052535
Si       5.17532400       6.86793985       3.99372555       3.10940626       3.67260147      -0.96046332
Si       6.45168129      10.51407251       2.10509704      -0.38847717       3.49716086       7.58381709
Si      10.42873956       2.02600928       0.38306390      -0.33259718       1.66217565       2.68398232
Si       2.39308997       0.00906376       2.66059661      -4.76499289       6.12951324       3.44206722
32
Lattice="10.953064772841406 2.0414019778866393e-15 2.391532347210215e-15 2.041341254603979e-15 10.953064772841403 9.315213603459425e-16 1.1956332070866667e-15 4.658151368277192e-16 5.476532386420701" Properties=species:S:1:pos:R:3:momenta:R:3 pbc="T T T"
Si       5.53183856       1.82969855       1.13269476      -3.57544605       1.98824315      -1.36842740
Si       7.65289265       2.82509700       1.25031389       2.30540027      -1.55773648       1.48081968
Si      10.13076604       4.93049271       0.71134246       0.81713267       2.44961096       1.97291857
Si       6.00519648       6.34956144       5.24192847       0.32414388       1.52446681       2.69735125
Si       3.22009286       8.59133279       0.86116074      -5.23758366       2.06452597      -0.14928950
Si       9.72660881       8.85668550       1.23331885       4.56115832       2.48435092      -1.73761371
Si       2.17608975       9.46664076       2.82728833      -0.19358140       0.17698938       2.20125091
Si       8.68322876       3.00677223       3.42089497       3.38619894      -3.34917900       1.68630947
Si       8.68636219       6.69137099       2.28400725      -1.65575757       1.77220408      -5.92058742
Si       2.67554214       4.87242350       4.72689509       0.58402193       4.88845660      -6.23003860
Si       1.81048839       6.90700964       0.04754492      -1.06291405       0.54077688       0.31395961
Si       4.20327387       2.94324603       2.73813925       0.87918348       2.67720212       3.16278922
Si       0.67680548       7.84081602       3.71409484       1.12148440      -0.22647397       1.29324407
Si      10.66494060       3.18341077       2.25228855       0.95391843       1.67193835       2.74903772
Si       2.51872499       2.88179400       0.64883121       1.01804324       0.40393391       2.36434693
Si       7.71382596       5.11790196       0.72336738      -4.33062734       3.47242895      -2.17945550
Si       9.50421097       8.71102057       4.38981462      -5.96341459      -4.88322626       1.53946107
Si       1.67256622       4.35274279       2.68225701      -3.78420709       1.85285309      -2.92501640
Si       9.00970790       5.18966909       4.15121796      -1.06436137       6.70042375      -0.27410193
Si       5.98298170      10.49431486       1.30253406      -1.83857010       1.10214770      -2.69952047
Si       7.32531992       7.83548429       3.92887333       5.21185820      -0.06673809      -1.21558577
Si       4.06075038       1.57782502       4.73841400      -0.22448946      -5.40213049      -2.67280006
Si       5.52823753       9.07334511       3.07799266      -2.50788834      -4.94397835      -3.95201520
Si       0.34373336      10.66201568       2.03954341      -1.03947861       0.48236831       4.01158001
Si       4.86055398       7.13378547       1.77457243       2.20188426      -0.79517398      -2.55414366
Si       4.67370349       5.28559847       3.48274285       8.30383971      -1.16661475       3.87305378
Si       9.45052349      10.87767604       3.49520619      -0.65901141      -0.98917427       1.29929484
Si       0.59625147       6.33230522       1.93022309      -3.88460202       2.44609851       2.20570878
Si       3.82676365      10.07535004       4.47580135       2.39691687      -2.54814768       0.61391259
Si       8.29695556      10.74414998       1.41888222       1.59331817      -4.51040622      -0.02265440
Si       9.16247016       1.50835272       5.25525447      -4.86999350      -3.20925222      -2.50969144
Si       0.41733668       1.62544448       0.69454245       6.23342377      -5.05078769       2.94590297
32
Lattice="10.953064772841406 2.0414019778866393e-15 2.391532347210215e-15 2.041341254603979e-15 10.953064772841403 9.315213603459425e-16 1.1956332070866667e-15 4.658151368277192e-16 5.476532386420701" Properties=species:S:1:pos:R:3:momenta:R:3 pbc="T T T"
Si       5.13327575      10.51502643       2.18483332       3.21075260       3.67315425       0.23853543
Si       8.29156922       2.65921567       3.06757545      -5.50756551       1.35119183      -3.50754836
Si       0.58176095       4.63150570       1.85618796       4.81714283      -3.80905800      -2.47593151
Si       4.05153457       5.27590583       4.60748142      -3.25692027       1.30243933      -6.58318699
Si       2.92375426      10.30138579       1.18387851       1.36048229       2.83936068      -3.88517117
Si       8.86083364       8.62542485       1.41439430      -0.43242346      -2.68841161       3.81086072
Si       4.67533730       8.59381834       3.61417826       2.62127188       2.86515497      -3.26308297
Si       9.17071219       4.48225583       1.63974996       1.76174641       1.40165024       4.88359185
Si       7.91421667       6.46637634       2.02079283      -0.78944650      -0.12249877      -2.69232335
Si       1.70946381       4.87156021       5.22022005       3.20786348      -1.06702462      -3.01161970
Si       1.17659192       7.18348169       5.26028472       3.72889437      -0.38208296       1.01143359
Si       4.69693450       3.00291209       4.25680753      -2.11415830     -12.25936459       0.62073533
Si       1.48785268       9.19182249       2.72077615       0.54093671       1.38455789       0.10820964
Si      10.46274623       0.49414060       0.20471827      -1.09310349      -1.53564566       6.59616667
Si       2.39286328       2.67317349       4.55278362       4.45005448       1.28869241       7.57388256
Si       5.96965910       3.54101635       0.67537581       3.37796738       1.44425880       0.50041461
Si       9.91953021       8.02901552       4.87634126      -0.27809674       1.63000950      -0.22548505
Si       1.01693978       2.43815780       2.69577574      -1.91861745       1.51319966      -2.48215521
Si       8.03378077       4.13975143       5.04502891      -1.87085400       0.37778163      -3.53263995
Si       6.83442334       9.64598892       0.77468762       1.70693676      -1.33825327       3.68649001
Si       8.12563950       6.50815101       4.32785028      -1.65443580      -1.11557841      -3.08401664
Si       6.85813662       0.76127421       5.11970532      -1.01842313       2.64544155      -1.19918270
Si       6.22958968       7.70447963       5.10097400       0.49239421      -2.39230746       2.31984617
Si      10.08964778       1.12460708       3.44208727      -7.99190850       0.83305200       1.13736173
Si       5.49952218       5.91448803       1.03871935       0.65404041      -2.88797114      -5.28504435
Si       3.93970797       6.57360376       2.65224643       0.78454554       3.00900601       1.98451025
Si      10.16073514       9.65140335       3.09941913       1.25435509       0.29842219       2.36345687
Si       1.61679423       6.83165359       2.13972578      -0.02084099      -0.88983324       3.95020649
Si       2.66008447       8.96165418       4.73904794      -0.16369895      -1.85728326      -3.28811195
Si       5.97434566       1.96388506       2.56210726       0.13401853       1.83303271       2.14144986
Si       8.65389658       1.84055083       0.72220642      -1.08949844       1.32119786       1.89764734
Si       1.67686402       1.26951807       0.78908699      -4.90341145       1.33370947      -0.30929923
32
Lattice="10.953064772841406 2.0414019778866393e-15 2.391532347210215e-15 2.041341254603979e-15 10.953064772841403 9.315213603459425e-16 1.1956332070866667e-15 4.658151368277192e-16 5.476532386420701" Properties=species:S:1:pos:R:3:momenta:R:3 pbc="T T T"
Si       4.28562804       0.30927897       3.28630106       5.85357427       2.49688489       1.86752252
Si       8.16852881       0.76967720       2.65507420       4.47914238      -1.12353251      -0.48458740
Si      10.58539239       4.09694617       3.04942312      -2.73643422      -3.98541479       1.87781237
Si       5.07398861       5.36436313       0.95011574       4.27179378      -0.41084217       4.94186046
Si       3.74009465      10.50213335       1.07250813       3.34690764       1.22794694      -1.83691913
Si       9.15569277       8.48005531       1.48815319      -0.59063865      -0.67246443      -1.85935757
Si       1.80225559       7.00031954       1.59379808       0.32391998       1.93771047       0.69109660
Si       9.37174733       4.26283119       1.02960750      -0.41066906      -4.55590784      -4.53558568
Si       7.26059267       9.56038274       2.35392367      -3.07701509       3.13863532       4.85320739
Si       0.88895075       2.91759599       1.17991124       2.79338638       2.58905505       1.31960641
Si       0.83396711       5.26046077       0.23761905      -2.48091332      -0.65204806       1.76360843
Si       2.74136938       2.02097425       3.89187375      -2.20679947       2.65323005       0.38692466
Si       2.76032391       8.54940798       0.10813039      -0.22956978       2.89575907       0.01752468
Si      10.21534864       2.68724427       4.89606964      -0.21847515       0.71601266       0.27252267
Si       3.03535961       1.83906520       0.73553324       0.63649812      -5.19390422      -0.05023724
Si       5.09488101       2.97828428       1.06683652      -5.54675501      -5.47546270       2.32404212
Si      10.12798271      10.24369505       0.35789910      -2.36752425      -1.99123394      -1.73967501
Si       2.04600980       4.29444902       3.67540637      -5.03245672      -3.19192866      -7.66667122
Si      10.14496887       6.14026159       4.21426408       5.86757534       1.54814588      -4.66127158
Si       5.97283599      10.17799709       0.40625490       6.14611418      -0.97394184      -1.00559925
Si       8.23959859       7.11288846       5.28707072       3.16911271      -5.83874462       1.13401964
Si       6.41558845       1.51503336       5.23409939       1.70785630       0.91496157       3.18515749
Si       6.44388298       8.41240811       4.31943657       4.24936126      -2.77442310       0.39038342
Si      10.46722277       1.02603307       1.89146865      -0.55506627       9.17921258      -0.60891966
Si       7.42627987       5.53921265       1.32912709       0.12611932      -2.72299642      -0.47505225
Si       3.55206987       5.91091633       2.75352068       2.87887496       5.64633080       9.50988653
Si       0.88329593       9.46620847       4.40445638      -0.99152872       2.82160608      -4.08830394
Si       0.02297644       7.86663416       2.87889361      -6.80232275       1.06035070      -1.69690952
Si       4.47155494       7.02203188       4.65015885      -2.11945554       0.09839300      -2.71281037
Si       6.07756562       1.86679564       2.90941869      -2.65146822       3.05023330      -4.99914665
Si       8.68032958       0.94484647       4.94904077      -6.66336476      -3.27683477      -0.49218604
Si       0.80246031       0.77570768       3.79658871      -1.16977964       0.86521170       4.37805714
32
Lattice="10.953064772841406 2.0414019778866393e-15 2.391532347210215e-15 2.041341254603979e-15 10.953064772841403 9.315213603459425e-16 1.1956332070866667e-15 4.658151368277192e-16 5.476532386420701" Properties=species:S:1:pos:R:3:momenta:R:3 pbc="T T T"
Si       6.24283690      10.88887071       1.17940120       3.10517345      -1.26867156       3.53810166
Si       6.03395536       2.29936688       1.70698115      -4.75143467       0.44028600       4.15034147
Si       1.03317060       4.01907653       1.87150760       3.37895862      -1.92389969      -5.20365010
Si       4.95707351       5.34717327       0.84749034       6.90730575      -1.66789027       3.32950289
Si       3.95712903      10.47605140       1.35539448      -2.13674597      -1.39647372      -1.24934336
Si       7.49580115       7.68868331       5.47222979      -6.69246278      -0.18954555       1.71802507
Si       3.22166269       8.14903906       4.25410100      -8.52101884       0.44902944      -0.90605217
Si       8.90690405       2.84249543       3.00227930      -0.97136556       1.31076054       3.62083404
Si       7.96567967       9.33330303       1.68944937       4.93120703      -2.67294147       3.41989003
Si       0.63856877       2.26609419       0.36138285      -2.12346172       0.68020353      -3.86182998
Si       2.23846035       8.95456864       0.75180470      -2.43828512       0.59910807       2.17306289
Si       4.28056830       2.39374741       4.45588643       3.82045593       4.54222598      -0.55016768
Si       1.76150729       7.33825792       2.45203251       0.00299673      -4.06636480       0.78198383
Si       0.21701588       2.58308204       3.56366841      -2.11547232       4.16957173      -0.81881074
Si       3.71476644       1.94855638       1.19738873       3.40856894       1.83390828      -0.07432316
Si       7.45608162       3.59130549       0.26967742      -0.73031082      -0.07606319     -11.46430374
Si       9.36468200      10.60685023       0.30322743       4.85804033      -0.12902676      -3.38258785
Si       4.46525959       4.63968391       3.95384012      -5.13462794       1.10379303       5.28691006
Si       8.70870315       5.20781848       3.20876821       1.56392943      -4.41179855      -2.15091868
Si       4.30131480      10.11141230       3.63391298       2.33011097       3.57936779       1.59414435
Si       8.79790550       5.72328737       0.03587790       4.87540830      -0.62311002       2.73131170
Si       6.72632836       2.17692926       3.93965445      -3.13410512       2.95614718      -4.81310010
Si       8.29997590       9.38759846       4.02492124      -3.20659936      -1.31952699       0.37041362
Si       0.65593012       0.29634219       3.16473699       3.45513304       1.33343961       1.06613613
Si       6.32281534       5.67668843       2.82568318      -2.01311915      -3.20558941      -3.06650173
Si       3.00549849       5.30580580       2.17387637      -3.07941170       4.73291147       7.16551531
Si       2.90115192       0.99343564       3.22674120       0.68541660      -3.90127020      -1.01569440
Si      10.50840481       5.92265149       1.77031697      -2.32734467      -1.99892133      -0.86826222
Si       5.31250383       7.02027484       4.68122700       1.18293690       2.49719805      -0.51279559
Si       6.43562724      10.82061788       4.33539757      -0.10869220       4.48463261       1.79296571
Si       9.21562892       2.03331658       0.77357416       1.49009641      -1.57687512      -4.38004993
Si       0.69276760      10.77788440       0.69301960       3.48871951      -4.28461467       1.57925269
32
Lattice="10.953064772841406 2.0414019778866393e-15 2.391532347210215e-15 2.041341254603979e-15 10.953064772841403 9.315213603459425e-16 1.1956332070866667e-15 4.658151368277192e-16 5.476532386420701" Properties=species:S:1:pos:R:3:momenta:R:3 pbc="T T T"
Si       4.02938206      10.36073989       1.70528732       2.94381781       5.10056168      -0.10222491
Si       6.24396450       2.94507344       2.60167587       4.68538251      -2.76114310       2.93503473
Si       1.08581175       4.05717458       3.07304679      -2.14496324      -3.12498910       0.47302070
Si       2.96019023       7.18687220       4.78183700       3.99753727      -0.81729912      -1.58791432
Si       2.36247852       8.71012460       1.00374236       4.21843527       0.60320255      -2.56642546
Si       8.37078080       6.30400921       0.40394198       0.32109790       2.79166024      -0.06139020
Si       2.10722061       6.96715965       2.59563091       0.33424242      -4.08909108       1.12775349
Si       8.47959844       2.68612415       3.28845885      -0.71362312      -4.79547688       2.63480849
Si       6.67242826       7.83363467       1.23591304       3.75835125       5.38025490      -0.90154384
Si       2.20546872       2.25432006       4.19571742       1.56915138       2.32994227      -2.33324904
Si       1.35683422       5.44253867       5.17222603       8.57945170       6.85326997       0.19197110
Si       4.01472181       3.59418813       5.15061449      -0.27177003      -4.72880003       3.00633333
Si      10.60467877       6.96461356       0.40298142      -1.09224635       0.29113534      -0.83517757
Si       0.59560776       1.62090196       0.44008158       0.37507606       2.39457506       1.10993019
Si       2.57271470       1.35641274       1.88252386       1.77132124      -1.43390513      -0.83359098
Si       6.19902740       2.75266496       0.30900303      -1.98623806       3.73437739      -2.22449073
Si      10.24104870      10.81732338       4.88145389      -1.92697326       2.20734506      -2.02919683
Si       2.84351393       4.81834224       1.63532374      -2.11178467       3.91232335      -0.97447138
Si       8.38038003       3.86269216       5.42480230       3.02700512      -3.93555525      -3.11545630
Si       4.57828788      10.19419304       4.76818920      -3.30330416      -0.85939467      -1.59643953
Si       8.51333277       5.95256186       3.50560263      -5.40313394      -0.56131985       2.04635640
Si       6.50924279       0.45813901       5.37606195       0.81571369      -0.96090532       3.12096250
Si       8.15091667       0.32363260       3.71998668      -1.70912982       1.51373701       5.10258772
Si       2.51425435      10.72560260       3.67625082      -5.72299163      -2.37596116       2.05534326
Si       6.20062666       6.61914829       3.19098207      -2.30891746      -3.49698712       0.95418710
Si       4.79432404       4.69613986       3.13806675       1.78708472      -2.75815361      -8.18535770
Si       0.42446054       9.57013639       3.27521523      -1.22074879      -2.46029052       0.08806754
Si      10.79022694       7.21344297       3.37454608      -0.35425236      -0.46878812       3.74561409
Si       5.19070790       7.89214623       4.87946307      -1.39484953      -0.29261944       1.93404590
Si       6.68651581      10.19055810       1.92157064       0.11928812       2.49514501       1.47184103
Si      10.13211436       3.23294779       1.61164823      -6.05402457      -2.66847355      -3.89437940
Si       0.02481724       9.21670995       0.98320261      -0.58400548       2.98162321      -0.75654935
32
Lattice="10.953064772841406 2.0414019778866393e-15 2.391532347210215e-15 2.041341254603979e-15 10.953064772841403 9.315213603459425e-16 1.1956332070866667e-15 4.658151368277192e-16 5.476532386420701" Properties=species:S:1:pos:R:3:momenta:R:3 pbc="T T T"
Si       3.70398770      10.38638550       0.55930444      -0.73527519      -0.73826031       1.20117590
Si       8.29236740       2.53753620       3.35487899       0.41192731       0.67554696      -0.16744447
Si       1.34669136       4.50128123       1.92241302       3.65486776       2.61661306      -0.44342367
Si       3.42040321       6.76908090       0.03327828      -4.36024030      -6.21137455      -5.56835470
Si       2.15345032       9.91469136       2.23384545       2.37003827      -1.76188510      -4.73461896
Si       9.22096475      10.09102532       2.14683757      -2.04525367       1.93073758       0.90652690
Si       1.87655584       6.78809119       1.74046936      -4.09967933       5.01874153      -1.69653490
Si      10.79447868       4.77827410       3.83357387       3.62171900      -5.01140406       0.55408559
Si       5.59045712       7.30739890       2.46173012      -3.48580835      -5.49583570       0.02726235
Si       0.86167090       3.36040614       5.43724776       4.98346470       4.25342465      -1.23356529
Si      10.29113944       6.67462193       5.20033869       3.92763211      -1.25527787       0.77725160
Si       2.79339757       2.51624396       4.39759812      -2.67508385       4.06827434      -3.60133485
Si       0.07902368       8.54507399       2.46324150      -2.45530388       6.55756161       5.58811974
Si      10.19481775       1.23027411       2.77832091       3.41948035      -5.50354727       5.37000899
Si       5.33281352       2.67130377       1.81067648       0.40153370      -1.46089767      -2.87138666
Si       7.40496944       3.80564584       1.57476740      -6.68066615       2.29152957       0.43672302
Si       9.15352470      10.52484276       5.32972400       2.22211681       3.80526211      -4.07095896
Si       3.51105561       3.92248163       2.70625889       1.21855237      -7.74490998      -0.08660829
Si       8.61361753       4.05680131       5.05519347      -3.35290098       0.25049427       1.59712485
Si       6.54291652       8.25882577       4.35606370       2.94965280      -6.42327745       3.40926256
Si       8.00045893       6.36138471       4.61362263      -2.45782901       6.88402703      -1.34242937
Si       4.65788896       1.47818525       5.39306280       0.60136733      -2.91460971       2.80973095
Si       7.47645478      10.26787221       3.71506975       3.26374293       3.47171051      -1.00301531
Si       1.46358062       0.78365379       3.52025084      -1.03091053      -4.48720751       0.61086214
Si       7.54108560       6.02976415       2.22895347       0.61859579      -0.77599844      -0.36222918
Si       3.66574893       6.20613255       3.27618144       0.31382207       3.85880802       1.50863566
Si      10.80075933       8.89751815       4.76157015       3.98184844       5.16775571       3.05302833
Si       9.86535261       6.47975127       2.02691436      -1.70580640      -0.96853184       4.10483010
Si       4.94222200       8.43627553       0.52980851       5.40694144      -2.80726740      -2.91381791
Si       6.23097808       1.31772535       3.61275341      -4.39886905       2.18120126       1.86815841
Si      10.62986952       1.37114428       0.45908799       0.93502189      -3.77728658       0.02969228
Si       1.28910632      10.55057579       0.07201049      -4.81869838       4.30588323      -3.75675684
32
Lattice="10.953064772841406 2.0414019778866393e-15 2.391532347210215e-15 2.041341254603979e-15 10.953064772841403 9.315213603459425e-16 1.1956332070866667e-15 4.658151368277192e-16 5.476532386420701" Properties=species:S:1:pos:R:3:momenta:R:3 pbc="T T T"
Si       6.70495891       0.69581252       0.72847955      -0.20744604      -2.19908704      -2.47481530
Si       9.11088574       3.23507197       1.03553526      -3.58101435      -4.65224842       4.33150309
Si       1.40270515       4.87415216       1.87164290       5.64055561      -1.33880520       0.28047169
Si       1.69691718       7.01325800       0.98110026      -1.28682752      -1.64032371      -0.65321072
Si       3.49344342       0.11652565       1.44191921       3.01649221       3.10161569      -1.39929642
Si       9.68325718       8.31195623       1.78732313       0.72053589       5.16543230       0.02870092
Si       3.16963041       7.47902742       3.86373072      -2.59666378       0.48820492       5.58951997
Si      10.34359857       4.15408883       2.82614992      -1.19758402       2.46590619       0.05531629
Si       6.47657556       7.09220532       2.72447348      -1.15052671       1.70824819       1.69717711
Si       1.96410886       3.62696014       5.45971724      -0.32300791      -0.13806536       1.76079064
Si       0.43104726       7.61378153       4.56224451       0.06248743       8.07000281      -1.86316140
Si       4.49317037       3.54542199       2.72977683       2.49900961      -1.77275949       0.77934673
Si       1.28596817       8.59260371       2.63149391       1.64528519       4.80999909      -0.93122417
Si      10.78551898       2.80692382       4.82968829       2.42415556      -1.62658122      -1.28091484
Si       3.81317065       2.33670841       0.69257571      -3.26491444      -1.08469631      -1.08889448
Si       7.06813454       4.12967568       0.06441233       2.61146467       0.14904214       2.10094950
Si       8.86831898      10.08106315       3.13169580       2.97165135      -1.50088124       0.17506414
Si       2.84841807       4.94476900       3.70414144      -3.24146687       2.64546849      -1.28470135
Si       7.70205743       6.14302343       4.47452485       1.52154956       0.03335571      -3.89475352
Si       6.34446126       9.44910917       0.06897425      -1.67882584      -4.12659882       1.81104534
Si       7.65991771       7.66355520       0.78190021       0.48527797      -0.96124992      -0.79400488
Si       5.63180777       2.35079277       4.58884409      -6.39195931       2.92442453      -0.10616943
Si       6.61189857       9.46587090       3.28103082       0.96625919       3.89710525       1.36299267
Si       1.31966091      10.91379049       2.28584727      -2.05051967       2.48779488      -2.29290750
Si       5.60524974       5.23469024       1.60078470       1.93494106      -3.34566308       0.93264933
Si       4.05076984       7.17563595       1.65180737       2.38680132      -3.83804043      -0.50383692
Si      10.10495294       9.49364646       5.06991353      -5.27419724      -1.63454240      -5.86312797
Si       9.76786930       6.35000513       3.42222243       3.82865583      -2.64680553      -0.52591190
Si       4.06251997       9.01491978       0.18839132      -1.66687429      -2.02995021      -0.32784147
Si       5.45120838       0.47871105       2.77391529      -0.13286130      -0.07716075       0.40498455
Si       8.87974910       0.93117199       1.55646389      -1.30453405      -1.90175589       0.04492469
Si      10.90985783       0.55227609       0.36473017       2.63410087      -1.43138517       3.92933561
32
Lattice="10.953064772841406 2.0414019778866393e-15 2.391532347210215e-15 2.041341254603979e-15 10.953064772841403 9.315213603459425e-16 1.1956332070866667e-15 4.658151368277192e-16 5.476532386420701" Properties=species:S:1:pos:R:3:momenta:R:3 pbc="T T T"
Si       5.04757905       0.00431445       0.21086850      -3.49895525       4.08522231       1.45479247
Si       8.50775846       0.79897011       1.37212555      -3.43208012      -4.24875383      -0.33156071
Si      10.52228712       4.51290312       0.50703719       4.30038063      -1.20554748       1.00330081
Si       3.14900213       6.38963660       0.42842705      -9.67765288       0.10758769       1.92489227
Si       4.38408524      10.14221370       2.33580587       2.10049850      -3.78270762      -3.81244202
Si      10.16740260       7.95256008       1.15558631       4.46188951       1.50359959       0.97753870
Si       2.27846932       9.09164245       2.15263480       0.51961451      -1.34298011       0.23105940
Si       9.22350204       5.39011499       4.19677285       2.31160979      -1.79518536       5.20264967
Si       5.83849405       8.36914743       3.02046323       2.24506384       6.11481925      -3.66151694
Si       1.48212227       3.57936568       4.95204318       1.22533599      -0.34943989       0.46390156
Si       1.41181052       8.02641011       0.24772980      -2.02431437       7.14459156       1.56058060
Si       3.69268906       1.25404081       3.40257372       1.63198437      -3.40638297      -0.78185325
Si       1.47244298       7.29832104       3.45923443       4.82164965       1.05586999      -4.11600101
Si       1.53773763       1.23927942       4.38286105      -0.23583929       2.38857588       4.39719630
Si       3.07112363       2.68201688       1.48067761       4.78808737       0.86524150      -1.96638383
Si       5.82318807       4.31231934       5.00820062      -4.26902297       1.32889493       3.11154559
Si       7.25960260       0.21616075       4.95570597      -3.90701979      -1.51068273      -0.19587068
Si       2.61506202       5.31500925       3.92220212      -1.17371509      -0.35383713       1.32245309
Si       7.49243872       3.95269044       3.43465976      -2.33561640      -0.18732027      -2.84357057
Si       6.48496047       7.11345433       1.12967765      -4.17764871      -3.74084084      -2.46764694
Si       8.41231800       7.34769020       5.27721470       0.67582801      -5.01636875      -5.62289981
Si       4.62200710       2.28478342       5.28146003       0.43509958      -1.56284721      -1.73992789
Si       7.88012812       9.16441498       3.92312402       1.75457788       3.87659010       0.49351817
Si       0.69857270      10.66918916       2.83629816       5.80938892       4.05326258       1.72190734
Si       6.18038696       4.89932496       1.75203629       3.67160000       1.97834211      -2.24027881
Si       3.82055666       4.82347014       2.04615464      -4.11679853       1.69740499      -2.90883308
Si       9.50285158       9.83773914       2.36249792      -2.33685061      -1.23917290       4.75864835
Si      10.63544286       6.04295820       2.40792813       1.81974798      -1.51884112       1.40745959
Si       5.13655288       6.76491788       4.72442675      -1.14200557       0.99465376      -1.46370648
Si       7.16136829       1.65443842       3.08891157      -3.67119930       5.60251939       1.47848712
Si      10.11535453       2.47531788       1.47659693       5.35778475      -6.25941920      -3.56011791
Si       1.16144631       1.30932401       1.19657906      -1.93142241      -5.27684821       6.20267887
32
Lattice="10.953064772841406 2.0414019778866393e-15 2.391532347210215e-15 2.041341254603979e-15 10.953064772841403 9.315213603459425e-16 1.1956332070866667e-15 4.658151368277192e-16 5.476532386420701" Properties=species:S:1:pos:R:3:momenta:R:3 pbc="T T T"
Si       4.67313487       0.29631428       0.89104200      -6.02708556       2.21197180       3.52769626
Si       8.23718918       0.37730624       2.82932303       4.11850375      -1.18044164      -2.38709237
Si       0.15543697       4.55738729       0.41567659       1.51155681       4.53133499       1.54321624
Si       3.94989262       5.85014383       0.70710281       1.71571951      -2.46245582      -2.44513533
Si       5.31028926       9.40258759       2.45098177       1.18532596      -1.71609684      -4.50545761
Si       9.30269796       6.04264078       0.86697889      -1.66708708      -0.10728808       3.55009958
Si       3.87464863       8.37106579       3.93858237      -0.61206096       3.33970561      -3.84445775
Si       8.25615339       4.14433982       1.75753920      -1.75108500      -1.61681155      -1.76324510
Si       7.74126703       9.11035929       2.23015792      -1.70917111       1.46632330       0.76651672
Si       0.72853534       3.73786532       3.81373408      -4.77263074       0.41010732       2.87893016
Si       1.61396573       6.32420621       0.90288838       3.99819836      -2.09122965       0.04476372
Si       4.32695613       2.50742315       3.74793962       6.02556299      -0.62009179       5.44942149
Si       0.34914049       7.67534650       4.35376163       0.50265046       2.43081593      -3.30395301
Si      10.30445392       3.11287890       2.05141300       3.62431921       2.72488255      -1.15568667
Si       2.09299981       1.80088935       3.86432406      -6.01889183      -5.77468915      -2.26977076
Si       7.28682089       3.07077751       5.39781553      -4.14041954       5.86813274      -3.22381448
Si       8.43943123       1.01410437       5.09726886       0.52282532      -3.26663973      -1.46139952
Si       1.48225184       5.91800529       3.20646933       4.14663006      -0.25483834       2.71196623
Si       6.98555712       4.64811652       3.62761841      -0.67994097      -4.18119159       3.48701802
Si       7.04226083       8.47230706       0.05446205      -2.13481523       3.02696318       0.25506596
Si       8.01186610       6.62753352       4.46130423       0.99442967      -1.33667234      -1.71597574
Si       5.05428061       2.66879481       0.53357126      -3.09786752      -1.11302348       1.27875594
Si       6.46179567      10.66406211       4.99287501       6.42545071      -0.21947774      -3.14154653
Si       1.27747801       0.18422085       2.25289488      -1.47604355       4.59986634      -3.62256674
Si       4.89440981       4.43274277       2.47251279       1.12096978      -0.76605797      -0.29995503
Si       3.72271439       5.99297068       3.82957160       0.87211124      -5.75503079       5.60165135
Si       1.80329566       9.51239387       3.97070513       1.49199842       1.55615952       2.73434427
Si       9.38823749       7.51023923       2.78384649      -1.40154594      -1.19726511      -0.43696947
Si       4.81253010       8.03885993       0.57677522      -7.43241947      -3.15027932       3.77963921
Si       5.83778813       0.83103944       2.93987238       3.34030137       3.17908063      -2.09822109
Si      10.04251856       0.87584896       1.46572407      -2.01855469       1.83264051       2.38661490
Si       2.37568142       0.18830337       0.16725050       3.34306556      -0.36840349      -2.32045281
32
Lattice="10.953064772841406 2.0414019778866393e-15 2.391532347210215e-15 2.041341254603979e-15 10.953064772841403 9.315213603459425e-16 1.1956332070866667e-15 4.658151368277192e-16 5.476532386420701" Properties=species:S:1:pos:R:3:momenta:R:3 pbc="T T T"
Si       5.53706218      10.79651466       4.95863560      -3.18312771      -1.86744458       1.36192540
Si       6.92832432       1.45941685       2.19166826       4.17564022      -0.83961054       2.78455059
Si       0.45858937       4.22143616       2.36366447       0.34040479       6.38587043      -0.56250863
Si       4.41006298       4.62381313       1.28628785       2.99952118      -2.59715382      -2.42657162
Si       4.25992058      10.04027672       1.48185222      -1.53862784      -2.28213784      -6.91233543
Si       8.78260075       6.89214227       1.37145555       0.44411492       0.71538817       0.50593689
Si       3.83379923       8.22561018       3.37628516       1.94084860       0.29506993      -0.89779925
Si       9.37693731       4.50925324       1.10730700      -0.53306907       1.81386604       1.24153580
Si       6.78334019       7.11382031       2.68172447       1.44441073      -4.44505589      -1.71715374
Si       0.07843072       5.66431547       4.17860923       3.58377104       5.15012940      -3.89004603
Si       1.35492213       6.77700249       0.39740886      -0.25362289       3.37931592      -0.39425881
Si       4.97318464       3.63811413       4.73844512      -4.34546312       2.70341693      -1.80376666
Si       1.94726074       8.76319478       4.75340765       4.53479737      -6.61820315      -3.08489678
Si       0.91472877       2.08095811       3.25898536       0.31116436       0.50246368       3.65923869
Si       2.45443318       3.34298494       1.45635729       6.35891653       2.00587447      -0.94462658
Si       8.68571337       2.94274297       4.91873268       2.14923375      -1.08931411      -1.73541546
Si       9.64481781      10.22256081       4.02758176       3.00453105      -0.95847142       6.11471726
Si       3.26477594       2.45706495       3.52555154       2.67366323      -4.10341821       0.57709470
Si       7.96204361       3.53257383       2.77188395       1.01751937      -0.20111835      -1.13881577
Si       6.51493280       8.68388688       4.47747879      -9.08467531      -0.28885808       4.94832965
Si       8.48129293       9.02045492       0.28387334      -2.88333635      -5.65595149       1.15322402
Si       6.57700801       1.95241156       5.42520770      -0.61561423      -2.12700534       3.16778772
Si       7.98283376      10.27073631       2.33912954      -2.09311782      -2.55917317      -3.93287266
Si       1.16545931       1.38224711       1.02099192      -3.04611945       2.47127284      -2.07325760
Si       6.03546687       4.85707383       3.00583271       2.50262972       0.50334574      -0.56912750
Si       3.45005154       6.71641922       1.46790227       0.85193405      -0.47498080       1.11407723
Si       0.57617772       9.28049077       2.97060495      -2.42589437      -1.54189222       3.50173688
Si      10.89952977       7.15017102       2.31162243      -3.48767933       6.15617914       4.96299887
Si       5.36288433       7.95505289       0.94730459      -1.43073858      -2.25373275      -1.93230317
Si       4.79143278       0.76110664       2.97118720      -4.90157726      -3.69228465      -1.67436852
Si      10.39650913       1.34477494       4.87916790      -1.26517306       7.46773593       1.82459574
Si       1.95115242      10.14164684       1.18236812       2.75473551       4.04587783      -1.22762522
32
Lattice="10.953064772841406 2.0414019778866393e-15 2.391532347210215e-15 2.041341254603979e-15 10.953064772841403 9.315213603459425e-16 1.1956332070866667e-15 4.658151368277192e-16 5.476532386420701" Properties=species:S:1:pos:R:3:momenta:R:3 pbc="T T T"
Si       3.91718564       0.81378850       4.59403259      -2.03307552       1.53508954       5.19487894
Si       7.54627168       1.85278846       0.62903537      -2.00744523       3.54072722       1.49174602
Si       0.54452375       5.32451407       3.09188056      -0.70556307      -5.44190734      -4.12237839
Si       3.30633951       6.74617369       0.95494060      -1.12290578       0.41311935      -2.05749882
Si       4.04145537       9.30616665       1.73000402      -0.27279717       2.96359307      -2.80074436
Si       6.85136449       7.50011654       5.03136234       4.55518492       1.79759839       0.68669847
Si       2.46783007       9.03620551       3.62569602       3.90929898       1.00507478      -2.38122907
Si      10.90045248       3.62646600       1.48173538       0.71394131      -5.85195890       0.46040574
Si       6.23417119       8.06675992       1.70370577       3.36832181      -3.25237490       0.11643516
Si       1.50307452       3.86134717       4.80871239       2.21667401      -6.14980582      -1.37534687
Si       0.94507650       6.82566509       1.23809569      -0.12747153      -3.17895175       0.19919232
Si       3.60649682       4.58427151       0.06085912       2.71889746       2.32844062       6.22411554
Si       0.51692097       8.88642739       2.26045579       5.84920428       1.31584182      -0.61215164
Si       8.46073949       1.74262513       3.98263314       7.35611327       0.63128718       3.15426192
Si       4.07496498       3.23001771       1.95509504       0.12546260      -2.27413783      -3.97535251
Si       8.54088358       3.93432348       1.30593502       2.87415409       2.56231220       2.50924767
Si       9.82347983       8.87178614       3.93198917      -3.32811666       5.50195219      -0.91698154
Si       2.50274655       2.19124579       3.34451816       3.75151119      -0.72030801      -4.10539955
Si       7.69369628       3.99835886       3.49116646      -0.76004599       4.62768440      -4.61405744
Si       5.14820205       9.96287959       3.77263751      -3.95732905       2.92376916       4.73984199
Si       8.33038569       5.61273995       5.11186009       1.25181045      -2.55215838       1.70752753
Si       5.30313558       2.25683896       0.26333805      -7.28420326      -1.47813975       2.87042609
Si       7.45675229       9.21522580       3.32538101      -4.08379885      -1.50808350      -1.39752620
Si       0.39498213       1.56653287       2.63854390      -0.29036847       2.14764144      -3.57929403
Si       5.28306320       4.27025314       3.67543877      -0.75368759       0.48542818      -1.63756176
Si       4.87137891       6.44588929       2.74043506       0.15035919      -0.16128932       3.13789827
Si      10.33379490       0.30876117       4.41961190      -2.89417468      -1.54580662      -2.69715121
Si      10.42256667       6.67462394       4.76882771       0.93911326      -3.01273021      -0.88136149
Si       4.35161865       7.78506328       4.57893585       1.89399275       8.06757046       0.49513917
Si       8.32851069       0.22920096       2.17276481      -6.25559480      -0.21334660       2.09367395
Si      10.62906409      10.83443851       1.23228385      -3.38042188      -1.21444836      -2.31090413
Si       2.45761541      10.30570912       0.20660432      -2.41704001      -3.29168270       4.38345021
32
Lattice="10.953064772841406 2.0414019778866393e-15 2.391532347210215e-15 2.041341254603979e-15 10.953064772841403 9.315213603459425e-16 1.1956332070866667e-15 4.658151368277192e-16 5.476532386420701" Properties=species:S:1:pos:R:3:momenta:R:3 pbc="T T T"
Si       4.49000565       9.48676036       0.16627442       2.32041633      -1.85511958      -3.02378310
Si       7.92086855       2.10213685       1.68877444       0.05151046      -3.36144943      -2.81437054
Si       1.72210416       4.52236010       1.64449933       5.63105387       1.70446191      -1.58437947
Si       4.33110246       6.15593440       0.64707531      -3.23456652       2.76623157       1.79857142
Si       3.13434092       0.21086365       1.07891595       3.73372120       9.02544801       2.32946585
Si       8.79346140       5.70362135       0.60912847      -4.86897696       1.47015308      -1.83465619
Si       2.53065805       6.66896735       2.15769951       6.11055072      -1.31653133       7.33967939
Si      10.72406702       3.78798476       4.29787792      -4.58999880      -0.03191854       4.24981008
Si       6.24979018       7.75892365       3.30131992      -9.26168753      -2.18188368      -1.00691199
Si       1.03385762       2.64726475       2.80170154       0.36412224      -0.63261535      -2.02515884
Si       0.17321234       5.50670635       0.25968541       3.05866418      -1.86335203       6.76223456
Si       4.07597996       1.79708836       4.99695356       4.83662167      -3.85853412      -2.54682081
Si       1.30576970       7.51322694       0.10632751      -2.77798306      -0.64623271      -2.55845382
Si       9.00828447       0.77996742       3.38386531      -2.45178323       0.20122020       4.99652411
Si       3.79978927       3.41368040       1.21840680       2.59594306       0.42932119      -4.08043408
Si       7.59508400       4.37973056       2.18391727       3.21185609      -0.79125376       0.82406678
Si       8.68266743       9.70944904       4.81160387      -3.66483470      -3.58527748      -2.67225364
Si       3.19702138       1.76993136       2.86244817       3.01586425       2.64268512      -4.47296037
Si       8.41200639       4.19170524       4.33627505       2.49536048       1.77594431      -0.48957572
Si       5.92767136       7.82137401       1.00658414       2.07082933      -3.23106414      -2.57310033
Si       7.77672620       7.54025968       5.06361546      -3.40637533       0.12990786      -6.33675121
Si       5.78026202       0.24058057       4.68223503      -3.15276255      -0.09728748       2.71193835
Si       6.95409926      10.03652348       3.04106708      -4.18589783       4.58238704       1.68681420
Si      10.57937338       1.19653394       1.66877025      -4.13402052      -1.34546229       4.04732675
Si       5.32005852       4.79639791       2.28582887      -3.56469135      -5.63690933       2.40100614
Si       4.37959494       6.36829138       3.79721261      -1.46652118      -0.07836972      -2.29149505
Si       0.01536132       9.22202374       4.60990713       7.95064313       4.58570245      -0.11488610
Si       1.23321688       8.74373981       2.63042674      -3.05943556       0.89280349      -2.50911422
Si       3.04675440       8.33876537       4.17046109       6.84638623      -1.81728066      -2.07868486
Si       7.32802238      10.94554759       0.90961765      -1.56214393      -0.88838116      -0.12951855
Si       9.35785057       2.12442884       5.28369101      -1.01132743      -1.97637772       3.86613118
Si       0.95661699      10.38643494       0.94981627       2.09946324       4.98903426       2.12974010
32
Lattice="10.953064772841406 2.0414019778866393e-15 2.391532347210215e-15 2.041341254603979e-15 10.953064772841403 9.315213603459425e-16 1.1956332070866667e-15 4.658151368277192e-16 5.476532386420701" Properties=species:S:1:pos:R:3:momenta:R:3 pbc="T T T"
Si       5.46664943       2.11249508       1.40895199      -0.40809348       2.33415803       0.07275294
Si       7.01598996       2.62327457       3.18712435      -5.64760533      -2.99920959       2.42638237
Si      10.57498815       4.71868675       1.93331034      -7.66117338       4.30077584       3.89713684
Si       3.29119366       5.90232626       1.01168027      -3.12331637       3.45742257       1.72868896
Si       3.33543609      10.18101633       2.72642074       1.42638121      -0.37252084       4.15541050
Si       7.95063566       6.98600539       0.66430863      -1.65375770      -4.01840688      -3.97491619
Si       2.15523076       9.03414651       4.42716221       1.11988818      -1.20388716       4.20923414
Si       8.68148958       5.96311244       2.62275710       2.24017601       0.20450471       1.31327795
Si       5.29292796       8.84980907       2.54151340      -0.60402551      -1.38775454      -0.02512223
Si       1.02202885       2.85600122       4.34674555       1.00884681      -0.82983841       0.26916383
Si      10.41989259       4.61037738       5.09351050       1.66102327       3.66269567       3.97580255
Si       4.46017933       3.98632103       0.39087105      -4.39281471       2.21359858      -1.60500091
Si       1.40522898       6.24195221       2.36857719      -1.08030974      -2.55839159      -1.55833170
Si       8.89875730       1.25105898       2.86702272       2.02530440      -3.81429779       0.73761339
Si       0.53639901       1.12600311       0.41457842       4.33837056       1.42039607       2.65958860
Si       6.61281691       5.08514403       0.03912681      -0.69273369      -1.37400921      -1.49993864
Si       9.69319933      10.94105758       4.73455481       4.08070329       2.08632417       1.34501245
Si       3.26029297       3.42220154       3.88894233       2.12264967       0.39225681      -3.41054206
Si       8.30847375       3.42157681       0.00232478       1.08747295      -1.61621974      -3.64475663
Si       6.87648661       9.04120406       0.84349607       3.35925828       0.28533984      -0.31647962
Si       9.65427110       6.87462744       4.54927384       0.32447895      -0.09973009       5.17196847
Si       5.99965203       1.13277788       4.78577205      -3.19082210       0.00653520      -0.38101509
Si       6.57276671       9.88661385       4.19906221      -3.25246843       0.01269091       1.69531457
Si      10.85030294       2.41654015       2.31320511       0.05628056      -1.79738668      -4.43705664
Si       6.60562828       5.01933015       3.17881508       1.20046285      -3.03775569      -3.20393429
Si       4.73038447       6.57147266       2.79659725       2.12621194       2.92798082      -2.03008815
Si      10.75271032       8.89654874       4.02243651      -0.18510250      -2.13582318      -3.85656657
Si       0.31178723       8.37844801       1.77351532      -2.07030595       0.46022600      -7.83904207
Si       2.90502067       6.78869683       4.31782844      -0.48998614       4.04192600       1.69728873
Si       4.18887489       1.36073437       3.24034838       3.93381584       0.24930154       4.59535585
Si       8.12454941       0.06225493       0.98256574       3.54072222       0.32951276      -0.65285394
Si       1.78756381      10.12538882       0.97958389      -1.19953194      -1.14041412      -1.51434739
32
Lattice="10.953064772841406 2.0414019778866393e-15 2.391532347210215e-15 2.041341254603979e-15 10.953064772841403 9.315213603459425e-16 1.1956332070866667e-15 4.658151368277192e-16 5.476532386420701" Properties=species:S:1:pos:R:3:momenta:R:3 pbc="T T T"
Si       6.79104182      10.90504017       0.04511796       4.02051429       0.12625568      -3.87568271
Si       7.26843705       3.63014408       1.92793782       1.82359881      -1.02846414       5.13501855
Si      10.89245108       3.84360569       2.27786359       5.19711183      -0.32620070       0.02763567
Si       3.10915902       5.62412252       4.32911749      -1.80302824      -4.01509263      -3.28876248
Si       3.61532796      10.19496677       1.63591191      -1.62846551       2.04147297      -3.28879149
Si       6.52102442       7.17756746       1.00364880      -0.87864255      -1.82695109      -0.26607730
Si       2.70852916       8.76051597       3.17142983      -8.65499593       3.00508677       1.11929753
Si       9.22448135       3.15811901       0.43113868       5.66682361      -2.16402433      -2.74554505
Si       6.74928071       8.03773846       3.14354508       1.30045385      -1.68317293       3.69528723
Si       0.63844752       5.73449861       3.55782396       4.18040862       2.87841752      -1.66849426
Si      10.08149215       6.29864776       5.26503877      -2.27867062       3.17387711       4.30936459
Si       3.56703431       2.67725779       3.62710560       5.32596371      -0.58679839       4.46844773
Si       1.55566405       7.17894006       1.97196484      -1.83823089      -3.39640434       1.95765866
Si      10.84795019       2.47036422       4.17746890       1.35973487      -3.47388377       1.57045239
Si       1.96005262       2.23196730       5.27717095       3.48402090      -2.74390099       0.15380427
Si       5.34101780       3.64403410       4.91501690      -1.63730859      -0.20459501      -2.10880823
Si      10.31642115       0.17012778       3.79812056      -1.14566698       1.21825307      -0.40463059
Si       2.21223852       3.47385861       1.76340108      -1.00537388      -0.15457423      -2.84747760
Si       7.53435165       4.17985914       4.21764846      -0.07855577       1.63912349      -5.02350526
Si       5.25125478       9.05534588       0.38268589      -1.49474123      -4.70203325      -0.49576659
Si       7.84594767       6.52760899       4.63791527       0.30000818      -0.66825661       0.07768485
Si       5.93921967       1.93492748       0.95637278      -0.22660933      -1.46137685       0.21973387
Si       6.81682554      10.51739033       3.19560302      -5.35745078       4.07956008      -3.06111411
Si      10.42521807      10.45313536       1.59531130      -9.75676643      -2.64393393      -1.73453254
Si       5.42865692       5.14935409       1.27571988       3.67312718      -1.06532838       0.47473705
Si       3.08577140       5.54983447       1.20155247      -1.23287188       2.07576848       1.78199706
Si       1.03877407       9.62762987       4.51487540      -4.14020171       5.04181611       0.79108362
Si      10.94248210       8.27776293       0.64387214       7.78640322       2.48136573       0.59391611
Si       4.53242536       7.67998213       4.08477427      -2.31794481       2.73099014      -6.96926610
Si       4.81872955       0.89028249       2.71244267      -1.86703996       0.26399771       6.84978645
Si       8.98862349       0.69882506       0.21778953       6.07514248       1.94162632       2.99483089
Si       1.69347759       0.11374956       0.69659726      -2.85074644      -0.55261961       1.55771780
32
Lattice="10.953064772841406 2.0414019778866393e-15 2.391532347210215e-15 2.041341254603979e-15 10.953064772841403 9.315213603459425e-16 1.1956332070866667e-15 4.658151368277192e-16 5.476532386420701" Properties=species:S:1:pos:R:3:momenta:R:3 pbc="T T T"
Si       4.55310907      10.78555978       4.50193999       0.98072948      -2.75323984       1.29792517
Si       9.96834460       3.57447144       1.01208548       1.70982829       0.02545193      -0.27292659
Si       0.16003147       5.53891502       1.56461340       0.03867741      -3.72547539       2.21917803
Si       4.32957855       4.59606997       1.17176864       0.04303287      -2.22558408      -4.78678002
Si       2.06676370       9.71752173       1.85484608      -3.34226179       2.25019273       0.94576060
Si       6.68270297       7.62321503       4.17485252      -1.86036461      -3.55730633       0.79376779
Si       3.24363374       8.96530716       3.80256965      -3.75356232      -2.39718634       1.99432035
Si       9.86401102       2.01598512       2.90944578       2.56402109      -3.40397641      -1.93908418
Si       6.38589505       7.71308127       1.00451367       0.79221123      -3.69269648       2.78324327
Si       1.90695623       4.37521999       4.21305622       3.31575988       1.58150531      -0.30965833
Si       0.87154605       6.36792736       5.00620825       3.06243944       2.52222179       6.21652942
Si       4.25565560       4.57368221       4.32775816      -1.13988972      -4.05274900       4.12892644
Si       2.35478919       8.02282695       0.25589425       0.79528119       1.12471183       3.76866444
Si       0.33799044       2.63101328       4.74843428      -0.58496608       1.90913065      -5.05519607
Si       1.52938660       1.99107797       1.18964564      -4.41269085      -1.30789146      -3.27779528
Si       8.02401909       4.23844685       5.43222543      -1.24915169      -3.99692058       2.37030052
Si      10.00160038      10.85610112       5.20042480      -3.41616625      -1.54385294       0.11118790
Si       2.08884944       4.16661636       1.91227861       0.52532804      -1.37935496       0.53726919
Si       7.65216719       2.36073527       4.08823796       1.98666147       1.91795474      -1.86849113
Si       6.44768329      10.27081431       1.43916150      -5.27337953       1.83302329      -0.25648818
Si       8.14323471       5.86532550       3.71604633       3.36119019       1.87740488      -1.34469400
Si       5.69315406       3.21268040       2.93399194       3.63818600      -0.79822413       1.58062397
Si       7.59861772       9.62308113       3.37427221       1.41306030       4.48893145      -2.55366350
Si      10.87206051      10.82599639       1.89795822      -1.40166137       1.22128795       1.00881579
Si       6.88507186       5.12482664       1.79617215       5.02474208       2.60165127       2.15543047
Si       4.20092680       6.91952224       1.25732019      -0.07141350      -2.99982361      -2.78508991
Si       9.91409065       9.27103312       3.38942057      -1.93778233       5.33418621      -1.28924780
Si      10.26073363       6.88391700       3.33737505       4.97687117       4.17087140      -0.95919984
Si       4.49826158       6.95160542       3.57119290      -3.90744837       4.53364448      -1.24637703
Si       5.00650200       0.97178131       2.48375703      -1.61576402      -1.58449230      -0.90981183
Si       7.65657823       0.23324498       5.12286086       2.66197602      -4.20055800      -2.08801646
Si       3.33479854       0.55266662       0.91472009      -2.92349372       6.22716193      -0.96942319
32
Lattice="10.953064772841406 2.0414019778866393e-15 2.391532347210215e-15 2.041341254603979e-15 10.953064772841403 9.315213603459425e-16 1.1956332070866667e-15 4.658151368277192e-16 5.476532386420701" Properties=species:S:1:pos:R:3:momenta:R:3 pbc="T T T"
Si       5.34109059       0.12683318       0.23655410       0.80693274      -4.46556622       1.51886682
Si       7.86398799       1.55112896       1.13613136      -4.91546225       1.74341959      -0.04572017
Si       1.33137507       6.81597319       2.21729285       8.00914913       4.49878144       1.83650901
Si       4.05592698       4.07758986       0.82332948      -1.10742291       2.83133586      -2.97058920
Si       1.49451633       9.33067291       2.15641131      -0.14063837      -2.19582446       3.26069848
Si       8.58671935       9.09682741       2.10773736      -1.81045247      -1.21244314       0.99494512
Si       4.51978098       9.62278960       3.27017604      -2.65327864      -0.68398815      -2.34344522
Si       9.70529554       3.46717819       3.93560968       9.87560981       3.54763436      -2.46924180
Si       6.82917136       7.79389547       0.99383373      -0.84364032      -0.65667436       2.07628570
Si       0.42217382       3.04829108       0.16299472      -2.08657324       2.81137799      -1.74657585
Si       1.73010286       6.68742257       4.51206732      -1.06974043      -1.72905816      -2.96510966
Si       5.80140401       4.67461486       4.83871276       0.54599763       1.84055717      -0.05076185
Si      10.40065320       7.27811597       4.95893701      -1.25139591      -1.90847930       7.39300909
Si       2.10508906       1.40366198       4.92586331      -1.04783082      -1.90537705       0.88055787
Si       3.77311883       1.73489081       1.01964473      -3.46251326       1.41992882      -2.23651154
Si       7.50898302       2.92277782       4.75729747       2.95252276       1.46888031      -1.60853901
Si       8.10780494      10.31959573       0.15598463       3.23513031      -2.39133257      -1.89734148
Si       1.86687959       4.99181975       0.66706892       2.32150512       2.95868509      -0.64706407
Si       7.04691455       6.70533941       4.42228440       0.24119135      -1.26679818      -3.07508419
Si       4.75028694       8.88806982       1.07441407       0.01027954       3.00306613       2.99277185
Si       9.18123630       5.78094366       3.55326411      -3.98503523       1.01557052      -1.11371502
Si       4.03789079       1.01436570       3.27223391      -4.11526826      -0.52210910       0.70698603
Si       6.88332512       9.15973844       3.84217923       3.44533013       4.26386459      -4.20620028
Si      10.44070639      10.61529492       2.58608469      -0.06225634       1.67598904       1.90900379
Si       7.19700595       5.81961252       2.17922694      -2.56506469      -6.59807844       3.65141468
Si       5.53039291       4.24335235       2.57942027       5.75869057       0.48529237      -0.62765163
Si      10.24262610       9.66663322       4.72342915       1.73485783       2.84323409      -0.54524943
Si       9.99961706       7.18214391       1.80957004      -1.89862263      -5.71673016       0.51082878
Si       3.12651988       8.57927088       4.85505741      -2.21817759       2.93677312      -6.71993074
Si       6.31329928       2.01484502       2.92950925       0.24495935      -6.88378829       4.44378299
Si      10.06666123       2.04788239       1.99438357       0.57277001      -3.01240608       1.18270720
Si       1.48125272      10.15869734       5.43181164      -4.52155292       1.80426320       1.91036372
