32
Lattice="10.953064772841406 2.0414019778866393e-15 2.391532347210215e-15 2.041341254603979e-15 10.953064772841403 9.315213603459425e-16 1.1956332070866667e-15 4.658151368277192e-16 5.476532386420701" Properties=species:S:1:pos:R:3 pbc="T T T"
Si       1.17186387       9.40606385       3.11468224
Si       2.71013164       8.94994020       1.40220014
Si       6.58896365       9.63394367       3.43206060
Si       5.99127320       8.28917049       1.48772564
Si       6.98527384       6.47307595       0.28049823
Si      10.95250744       1.42976063       1.52859345
Si       5.96146090       2.07498837       4.42201126
Si       5.80716655       0.65358137       2.51412421
Si       3.92018320       2.20354754       0.11421217
Si       9.36800408      10.76122589       0.69639050
Si       9.33177481       3.73768394       4.69286304
Si       1.12608498       4.34915601       4.42459658
Si       2.70361142       6.02767261       5.09490013
Si      10.92916065       3.69705046       0.92882963
Si       8.76731161       5.95790851       3.92417532
Si       1.89176427       0.64075734       2.63205638
Si       2.64943937       5.76538384       1.90980039
Si       8.44727107       3.15845450       1.34214114
Si       9.29742416       1.86265647       3.20610063
Si       4.91468747       9.45173970       5.18703401
Si       3.71910206       3.64641945       2.03617941
Si       3.85645430       0.16724481       1.26116181
Si       2.71829555       8.35270460       4.58730879
Si       8.77745817      10.51948079       3.89459886
Si       7.45023162       5.07589970       2.12091064
Si       2.49706993       2.58020977       3.78879770
Si       9.86041665       9.04911314       2.38316370
Si       4.14950477       7.41537871       2.73284512
Si       7.33009906       1.20779367       0.78430228
Si       0.28105123       5.46313770       2.51861432
Si       5.66811035       4.11475623       3.25022491
Si       5.01226107       5.93864187       4.51084724
32
Lattice="10.953064772841406 2.0414019778866393e-15 2.391532347210215e-15 2.041341254603979e-15 10.953064772841403 9.315213603459425e-16 1.1956332070866667e-15 4.658151368277192e-16 5.476532386420701" Properties=species:S:1:pos:R:3:momenta:R:3 pbc="T T T"
Si       0.46225151       7.23608668       2.01445302      -1.76759260       0.08055819       2.69722750
Si       2.81016816      10.05350776       2.73389826       5.51799182      -0.20455601       3.50505367
Si       6.86758351       8.72180246       2.74617168       1.88202347      -1.37348954       1.98501375
Si       4.41351373       8.32463177       2.35825987      -2.68547546      -0.58721643       2.97072577
Si       6.59660760       6.01839890       5.44866838       0.65118771       7.45740156       2.41433538
Si      10.77487121       1.85252134       1.83758561      -1.14128781       1.33451507       2.09767067
Si       5.39849555       4.02945151       4.93289286       1.58042813      -0.36580052      -0.65177439
Si       6.54960986       1.08639262       2.34608786      -1.41496659       0.99154053       1.96186265
Si       3.21581926       1.00478573       1.28777141      -1.92228700      -0.60787449       0.03025032
Si       8.41927386       9.41264081       0.88281621      -0.11488812       8.18062219      -3.71575288
Si       8.70305100       3.34513540       4.55345687       2.44974106      -4.43022262      -2.54044552
Si      10.76690465       4.58301513       4.30609893       0.74427391       3.07006345      -0.21758822
Si       3.56742997       5.61304970       4.83342994       0.46959700      -1.92746830       3.65803130
Si       0.28127606       5.09086869       1.06611896      -4.63044672       0.99098802      -0.28565164
Si       7.80029775       6.67984909       3.54815122      -1.19260156       0.09774273       0.48349527
Si       1.22313759       1.16674550       0.01552135      -1.85956853       4.66091237      -3.14977795
Si       2.57449068       4.88233852       1.32534032      -2.23729609       3.19906301       4.73412807
Si       9.36322066       3.74984328       1.36242716       1.36040536       0.74479697       1.10728863
Si       8.95020923       0.94289659       4.63873931       2.50794834      -4.61425138       0.53622894
Si       3.84076637       9.51271686       4.90219759      -0.72708949      -7.46408498      -0.63133381
Si       3.35442346       3.02021068       2.46203476       1.82250270      -0.76734172      -3.95575320
Si       5.30248640       0.06935252       0.55179436       0.08652036      -3.04108186      -9.23364871
Si       1.39587324       9.89492256       4.72706471      -3.01867090       1.12126219      -1.52180428
Si       6.91664333      10.62347533       4.28548229       0.38180471       2.61230427      -2.45076963
Si       7.38669046       4.96722822       1.95531443       1.00693384      -1.36635511      -4.95644334
Si       1.19973063       2.66989610       3.65474593       4.33569427      -0.41625673      -3.36179897
Si      10.59241207       8.49127988       0.15916641      -2.43982230       3.21264808       0.67233047
Si       2.73220167       6.66881494       2.85127333       5.79283824      -0.07516553       3.35578033
Si       8.75875484       0.66471535       1.58606067      -1.18636214      -6.06173082       1.48265021
Si      10.12256739       6.88029152       3.93572030      -4.88687819      -0.80740431       1.67080196
Si       5.76894056       3.31826730       2.70648300      -0.82288733      -3.95024286       6.03507230
Si       4.72571069       7.47940903       0.18872347       1.45822990       0.30612458      -4.72540463
32
Lattice="10.953064772841406 2.0414019778866393e-15 2.391532347210215e-15 2.041341254603979e-15 10.953064772841403 9.315213603459425e-16 1.1956332070866667e-15 4.658151368277192e-16 5.476532386420701" Properties=species:S:1:pos:R:3:momenta:R:3 pbc="T T T"
Si       0.16529430      10.05037143       3.03495387      -0.13115624      -3.14618470       0.06775996
Si       3.13656791       9.50533190       0.77934332      -0.65922586      -0.62665544       1.01282072
Si       6.46004703      10.09046914       3.19598843      -3.46563795       1.99369411       3.29643646
Si       4.64788481       7.67813338       1.21795346       0.27531759      -1.60157873      -1.35162166
Si       8.36020431       8.52634866       5.24093054       3.32808710       3.12026238      -4.37528922
Si       0.10759296       2.21790484       2.26781083      -0.97554897       1.32112195      -2.13115728
Si       5.62559482       2.51591988       5.02895471       2.71047526       1.25527897       4.08165891
Si       5.92946790       0.89202041       1.43521694      -1.10295783       2.82392854       1.13299744
Si       3.50878926       3.06187180       4.04387147      -4.59832138       2.46478186       1.01574826
Si       0.35166572       0.96750599       0.05583570      -2.24722127       0.47254924      -1.68213465
Si       9.15758687       3.74769164       5.19960052       0.26694144       1.39332992      -3.91019746
Si       1.68663736       6.04194346       2.98486540       3.05840158      -2.55453547       0.77008098
Si       2.22069303       4.88669877       4.92125383       0.82032533      -4.76529602       4.15706968
Si      10.93797843       5.24807321       0.22323267       1.66807819      -7.16932103       3.11864215
Si       8.73674215       5.29623727       3.39578553      -5.95684529      -0.16573076       2.16067255
Si       0.75570347       9.63621338       0.84804877       0.27937197       2.99373716      -4.06547681
Si       3.25431878       5.82397915       1.29201371      -1.87635925       3.33544723      -3.25462316
Si       7.86617525       3.82439561       1.76557311       2.78659134       3.14358761       8.33910100
Si       9.45742223       1.58680213       3.99942597       1.72996481      -2.86838975      -5.65587550
Si       3.35586888       9.30314155       3.95942920      -5.59420315       3.43976049       5.20432668
Si       4.33704933       3.88295816       1.94414784       1.63526987      -0.87779998      -8.44404283
Si       3.72080042       0.15687102       2.38454662      -0.88222380       3.29939603       5.61820347
Si       1.24088694       8.16007816       3.80084422       0.14585389       1.33402005       2.34794107
Si       8.81261774      10.22757581       3.51856482      -2.17939258       3.69350555      -0.14846700
Si       6.08998268       4.64030871       0.54135209       2.08674601       1.08300917      -3.61562040
Si       1.90051166       1.34888072       3.58284888       4.35677407      -3.77860997       4.12386283
Si      10.59385768       7.66130971       0.01467774      -2.02703308      -2.03445873      -5.96148579
Si       5.28765658       8.07570817       3.42355419       2.86209298      -2.11237120       1.60168692
Si       7.82618223      10.29425219       1.28068385       5.01290491       2.78564497      -7.53648660
Si      10.84084711       4.64069512       2.44412927       5.37435634      -2.23442480       5.91389003
Si       7.10450362       2.02942392       3.17308230      -4.77969771      -3.23905495      -2.92451524
Si       6.40521666       6.98849126       5.20543068      -1.92172832      -2.77864367       1.09409452
32
Lattice="10.953064772841406 2.0414019778866393e-15 2.391532347210215e-15 2.041341254603979e-15 10.953064772841403 9.315213603459425e-16 1.1956332070866667e-15 4.658151368277192e-16 5.476532386420701" Properties=species:S:1:pos:R:3:momenta:R:3 pbc="T T T"
Si      10.53568998      10.22891292       3.92699266       0.47516240       1.76414785      -3.52498424
Si      10.77049649       8.64848444       0.16452120      -4.15766707       6.66748414      -0.79632171
Si       7.47464124       9.33147971       5.12418292       1.30278397       3.12647379       2.73826481
Si       4.37191798       8.33221631       1.50180581      -1.73369228       0.90869795       3.32721075
Si       6.18677926       7.38636026       0.00735563      -2.43885499      -0.84189753      -4.25574065
Si       0.25378456       2.17655076       3.35784438      -3.23635010       0.61329002       2.80433718
Si       5.19612915       0.60823270       3.69541133       1.60140589      -1.34126159      -1.83100557
Si       7.19385224       0.81105227       2.37586685      -4.32867727      -3.77678162       5.91082734
Si       2.05928546       1.74038052       5.05862546      -1.43528630      -1.84707839       1.30745167
Si      10.42516884       1.18838845       5.42997876       4.15372069      -1.51936639      -1.66364744
Si       7.58036865       2.84628139       4.98171363      -0.48330629      -0.38212735      -1.82877847
Si       2.47957874       5.60699859       4.07721086       6.63164894       3.43941956      -3.53012338
Si       1.29038950       6.87042567       0.14534257      -0.61652880      -0.81246049       1.48642435
Si       0.38528210       4.81887584       1.10354319       1.23096388       3.86412868      -5.51599692
Si       9.18926129       5.04456994       3.90270939      -4.53119054      -1.83345667       2.61223218
Si       1.52488508       0.02639823       2.85464587       3.05133946       2.59542503       0.68085873
Si       3.77137592       4.76463692       0.45659890      -2.82823922      -3.61075254      -0.59916087
Si       8.86479572       4.29998646       1.05100159       1.35089768       2.18011928       3.40276837
Si       8.78295294       2.66315775       2.89941276       3.49201109       1.09124848      -6.86833192
Si       3.62351844       9.80460853       3.29725337      -9.12814066      -1.65168642      -0.16652750
Si       2.35659745       3.16469088       1.45741833      -3.00645311      -2.40678734       0.34247364
Si       1.41777336      10.58084752       0.58216658      -1.50321477       2.60401259      -0.37481028
Si       2.84183973       8.82138253       5.32145580      -0.31608646      -4.06461810      -4.70590027
Si       8.42401251       9.87389527       3.06372264       0.52527624      -1.98992788       1.65863679
Si       7.63285116       6.26426646       1.69050006       3.62196630       0.93690897      -1.25838806
Si       3.79453095       2.50187478       3.49079854      -1.07941982       0.86587488       4.18909898
Si       8.77961438       8.34520566       1.35943501       3.56949319      -3.10841676      -0.40174201
Si       3.94359224       6.21221881       2.33691691       0.88632198      -1.72273222      -0.62987613
Si       6.72158140       0.60647862       0.07486700       3.48407149       2.45475317       2.21476781
Si       0.50801894       4.52994123       3.46046225       5.17657281      -1.35529502       4.42933874
Si       5.48877591       3.93989121       4.47603022       3.66323560       0.41532213      -3.02268632
Si       6.01300655       6.01585115       3.47816002      -3.39376397      -1.26266022       3.86933040
32
Lattice="10.953064772841406 2.0414019778866393e-15 2.391532347210215e-15 2.041341254603979e-15 10.953064772841403 9.315213603459425e-16 1.1956332070866667e-15 4.658151368277192e-16 5.476532386420701" Properties=species:S:1:pos:R:3:momenta:R:3 pbc="T T T"
Si      10.84972894       9.28040500       4.69552427      -1.88003889       1.16701320       2.36826988
Si       2.29677161       9.06882550       2.19517115      -4.88991676       4.60472768       3.28883260
Si       7.30154196       8.98977350       3.18886935      -1.94750031       0.11492596       2.74800679
Si       5.95385095       9.75520657       1.32136759       5.80444371      -3.59589223      -0.11485089
Si       6.35378788       5.90610086       0.16015493       6.26050457       2.51783809      11.69503675
Si       1.12621554       1.37008199       0.77311827      -0.38357853       1.23884162      -3.64542809
Si       7.55546015       2.61894144       4.24887049       5.31566753      -2.10397709       0.36386447
Si       4.24849529       0.89188212       3.76402024      -3.71153657      -0.16098597       2.05735185
Si       4.61631880       1.06383713       1.45409803      -3.59233392       2.35369084       6.64815802
Si       0.30772657      10.16857176       1.43166712       0.42766270      -5.29111436       0.22782529
Si       9.37733967       3.91800622       4.99720368      -1.00088224      -0.26007931       3.83494920
Si       1.97908865       4.74483596       3.83492396       0.51509157      -2.16215492       2.23200152
Si       1.64531169       7.02705316       4.64995360      -7.98158276       1.06621179      -2.17320080
Si      10.73780348       4.26524178       3.11041493       5.62183451      -1.95289292      -5.04816716
Si       8.73791011       6.07224883       0.26514826       4.04261721      -1.14013389      -1.46673643
Si       2.06228765       0.03595939       4.33227509       2.63902867      -3.96585545      -2.16484292
Si       3.01392917       5.12412760       1.81275073       0.78019263       4.93018622      -5.33613006
Si      10.25165820       2.73632815       1.36823627      -0.87444000       2.05991080       0.31994249
Si       8.47041253       1.46974078       2.33907997      -3.15660598       1.16826639      -2.09676002
Si       6.16789862      10.49709727       4.60307276     -10.29502063      -1.14264645       4.76071516
Si       3.01245875       2.79034928       1.11229991       3.21095089       2.76742050      -1.18338239
Si       3.69292717       9.94208044       0.51446271      -2.03628058      -1.95555145      -5.10102730
Si       3.50112727       8.39187945       4.16114504      -0.40373414      -4.70734430      -2.31454514
Si       9.48589588      10.37527262       2.99240445      -0.57646492      -2.62123078      -2.74838408
Si       5.27768235       5.63380949       2.24876641       1.04708872      -1.97608381       2.37070148
Si       3.70532986       3.14668230       4.40819777       1.84522116      -2.20893856       0.80719564
Si       9.25132451       7.62747421       3.99984324       2.61564017       4.38995599      -0.93657675
Si       1.45653812       6.93155574       1.48789519       1.15400435       2.15166948      -4.33021682
Si       6.83629313       1.24568097       0.62678484       2.70569963       4.27557000      -4.90696039
Si      10.16182473       6.37952187       2.18506009      -2.09190190      -0.05099296       0.26459627
Si       5.79929740       4.17127838       4.08056575      -1.04643339       2.00774187      -0.35587077
Si       5.60117631       7.36775681       3.84060439       1.88260350      -1.51809599      -0.06436738
32
Lattice="10.953064772841406 2.0414019778866393e-15 2.391532347210215e-15 2.041341254603979e-15 10.953064772841403 9.315213603459425e-16 1.1956332070866667e-15 4.658151368277192e-16 5.476532386420701" Properties=species:S:1:pos:R:3:momenta:R:3 pbc="T T T"
Si      10.57683271      10.41251162       3.45871297       3.72075827      -3.09116981      -4.31389915
Si       1.07337487       9.30644695       0.83483974      -1.93322185      -0.40160286      -2.34894871
Si       6.15386138       7.84499414       4.30153564      -5.88718264       1.95647125      -0.86131213
Si       4.92312250       9.17193862       2.61908460       4.11954054       5.71946951      -0.47396269
Si       8.52125163       7.33385966       4.27846728       2.36768390       0.43433033      -2.50421502
Si       0.17165614       0.55393314       1.48950404       1.63986777      -0.97912319      -4.72538245
Si       5.81926382       2.14146090       2.79467857      -2.49073426       4.75202295      -2.36259313
Si       5.14829557       0.13135373       4.09957921       0.07709336      -0.10369831       7.12536703
Si       5.04286366       2.80069715       0.59895912      -1.50505021       5.37813842      -5.75925990
Si      10.14189492       7.86230929       0.59008575       3.83207086      -3.59850327      -0.53113847
Si       9.65569501       2.85686084       4.85086019       5.27991053      -3.36361724       2.12681936
Si       1.60030859       5.39790092       5.30273065       2.84304850      -2.33523398       0.32089985
Si       3.79099233       4.86436855       0.56185753       2.80495479       1.33553848       6.58212104
Si       0.99505382       3.23525918       4.81594464      -0.62598988      -2.04362319       1.88838076
Si       8.55216935       4.85896624       4.15889465      -1.36772575      -2.32296610      -1.65872952
Si       1.96251960       1.97127809       1.09605558       0.99955139      -3.10521345      -1.95820956
Si       1.76434284       6.49786006       3.20727460      -2.54447078      -2.78671824       3.32566475
Si       9.57044249       2.43958358       1.68895593      -1.62499230       3.46880251      -0.00592627
Si       7.86915638       1.11589676       2.56719823       1.73315750       0.03516768       1.70746968
Si       5.85401242       9.56384255       0.44975443       4.98158984      -1.77584276       3.52807073
Si       3.54899620       5.05535436       2.82474814      -3.55613597       2.27652376      -0.92658121
Si       3.12896846       1.10304357       4.70850803      -5.68771610      -3.94311091      -4.66649615
Si       1.78159840      10.12807033       4.27299890      -0.92218879      -1.67165586       0.08473550
Si       8.94568306       0.60257876       4.64847740       2.21875274       6.27027161       1.63069550
Si       9.15363951       4.73029212       1.86834549       1.95584032      -0.08548302      -2.44535769
Si       2.63643088       2.83634484       3.15791927      -2.75596743      -5.86914785      -3.60878320
Si       9.17512198       8.76368961       2.47563188      -4.08014473       3.71868842       6.61816511
Si       2.56804561       8.66207763       2.62137919       1.70622670      -0.34475108      -1.82177182
Si       7.97851067      10.32607606       1.04171676      -0.04339197       3.30826467       7.70246936
Si       0.16074140       5.98433718       1.55519044      -3.10618356       2.02060292       1.20166581
Si       6.45941241       3.78548285       4.36310816       0.82159261      -1.79963800       3.66485381
Si       5.15808953       5.71587251       4.37748585      -2.97054337      -1.05319338      -6.53481122
32
Lattice="10.953064772841406 2.0414019778866393e-15 2.391532347210215e-15 2.041341254603979e-15 10.953064772841403 9.315213603459425e-16 1.1956332070866667e-15 4.658151368277192e-16 5.476532386420701" Properties=species:S:1:pos:R:3:momenta:R:3 pbc="T T T"
Si       0.92742872      10.21750322       3.31254273       3.19019403       1.49052536      -3.48003780
Si       0.76652931      10.85609048       0.04497416       1.07033667       0.75937981      -3.92066134
Si       6.19939217       8.36819329       4.52921615       1.15927410       1.74929087      -3.39409707
Si       5.49877416       9.48680531       2.61254391      -2.46460279       1.93334685       0.25522916
Si       7.54544533       4.91167745       0.36739805       3.32319449       4.78632600      -4.22836115
Si      10.78055975       2.09975301       0.74917176       0.98077087       1.43349868       1.95539282
Si       5.20477193       1.10565097       5.45135001       0.28949084       3.10368645      -3.08653703
Si       4.80435532       0.76563754       3.18027465       3.59870077      -2.28437191       0.74964241
Si       5.46489823       3.45772283       0.50968832      -1.71602894      -0.47532626      -4.22008421
Si      10.13870972       9.01758727       0.58530342      -6.56296475       1.88490152       4.83214263
Si       9.35520100       3.60264340       4.97298502      -1.53284788      -3.17499466       2.41596356
Si      10.82260866       5.24976879       4.22794029       0.43423890      -4.76280365       1.00291062
Si       0.57877809       6.93929370       0.28372075       1.53223545       0.79061944      -2.26038233
Si       1.82990490       2.87142992       1.84728029       7.45719572      -1.17339953      -2.81492283
Si       6.86403298       6.20240397       3.98225327       2.33571530      -2.66628321       4.21612491
Si       2.60057513       0.71071896       2.43158177      -1.78264555       1.71824146       4.13665789
Si       2.91928934       6.61303948       0.81621174      -3.94192792      -2.08832368       0.14571066
Si       8.92394281       1.11908561       1.80683582       4.55743337      -0.98526643       3.47005063
Si       7.97080759       2.25847481       3.60226052      -3.66438011      -0.17180448       3.06336974
Si       4.43699415       8.56763853       0.69897900       3.43642588      -0.73312814       4.68575466
Si       3.17200698       4.21194424       0.32059578       2.26996513      -0.73678482       1.47860227
Si       3.22701564      10.63045045       0.43923640      -3.48993126       2.70807421       0.58958646
Si       1.20345987       7.88935111       3.56992072      -5.23991425      -2.29182679       4.33782921
Si       8.29983831       9.52112798       4.60335622      -5.64035108       1.47905996      -1.22570360
Si       8.08883188       6.56333100       2.01050942      -4.95731771       2.59342642       0.96735080
Si       1.91225865       4.27999936       3.73878458       3.52403394      -1.56757185       2.61205839
Si       9.61757773      10.00719874       2.64897239       2.97305386      -1.30320364      -1.19123731
Si       2.98606351       6.28577922       3.12612499      -0.25947824      -5.73783991      -0.61698358
Si       7.55053822       0.68582428       5.35984440      -1.84569159      -5.08597229      -0.70667714
Si      10.40275747       6.64971108       2.38508310       1.93868963       2.28391983      -3.10770291
Si       5.80130511       2.91989110       2.80347631      -2.38207644       2.66903050      -8.36461982
Si       4.94076026       4.94187948       3.70900214       1.40920957       3.85557389       1.70363129
32
Lattice="10.953064772841406 2.0414019778866393e-15 2.391532347210215e-15 2.041341254603979e-15 10.953064772841403 9.315213603459425e-16 1.1956332070866667e-15 4.658151368277192e-16 5.476532386420701" Properties=species:S:1:pos:R:3:momenta:R:3 pbc="T T T"
Si      10.47969912       7.87759693       4.88407982       1.98725805       7.19531372      -4.33692218
Si       2.61571270       8.93627064       2.23493437       2.82799273      -0.31611442      -3.00870718
Si       7.51657066       9.99324083       0.56887018      -3.84910731       3.35432190      -2.45888104
Si       4.57214493       7.97069852       1.38937117      -4.87208694      -2.48714646       1.32193665
Si       8.68706777       6.56119813       1.68264123       2.27476198       2.63472784       1.44468160
Si       0.24451850       0.22810012       3.38128246      -4.70177178      -0.16441376       0.95786389
Si       4.61189366       0.39073802       4.39689170      -4.22850058      -1.55976818      -3.00682162
Si       5.47836559       1.75383265       2.63895036       2.51720941      -0.80283984       0.93781889
Si       4.21707791       1.98302072       0.64021433       2.73277877       2.28981875       0.47769564
Si      10.39976047      10.44474840       1.23398365      -4.33313385      -2.70851751      -2.32199801
Si       0.34285722       2.63727713       3.92904839       7.59599996       2.86904695       3.77190834
Si       0.06131379       4.64860703       5.34159999      -3.94870509      -0.06969650      -3.65996694
Si       2.09009411       5.68026428       4.67913540      -2.35932097       2.76207239      -0.40667918
Si       0.22025577       3.01270794       1.57914300       0.02080439      -2.82161066       2.14186403
Si       9.03268030       5.94889084       4.93568786       2.52249870       3.88337678       0.99910625
Si       2.47962732      10.51307328       3.90893685       2.58098092      -0.24930497       2.66991838
Si       3.74159303       5.81503376       0.87150260       1.97725341      -3.11396291       1.11258824
Si       9.38123295       1.68258245       0.80802414       1.43430993      -0.67846291       6.67297257
Si       9.13577338       1.35612018       3.98239285       1.36987398       1.51813009      -8.02133508
Si       5.52764497       9.18108758       5.07803787       2.13054493      -4.69550510       1.24923496
Si       5.21975384       4.07377149       0.22963169       0.77431960       5.33080778       3.08559589
Si       1.66744918      10.33110984       0.59915102      -2.51190422       0.57390334      -0.15812600
Si       1.18860951       7.36645937       3.26875668      -1.62291261      -4.02958448       0.04244510
Si       9.19317442       9.81818047       4.34195713      -0.71956930      -1.38349695       2.57227729
Si       7.31392191       5.76349922       3.35633610       0.04278135      -5.13610697      -0.38911010
Si       1.86977194       1.78864248       0.45193500      -1.33906458       1.51604058      -1.66308061
Si       8.78226569       8.87917119       2.17869775      -2.25623106      -2.66447122      -2.25461719
Si       5.54438671       7.38328659       3.46674737       2.41179320       1.72072923      -1.44965541
Si       7.60688427       0.93987212       2.10391279       3.72138199       0.96974600       4.56243890
Si       0.04675237       6.59739988       1.39185726       1.26102465      -2.78008366      -1.91500599
Si       5.73990093       3.98436199       3.44514561      -1.94982231      -1.21466516       3.65814045
Si       3.92052849       5.46676247       3.20509385      -1.49143733       0.25771630      -2.62758053
32
Lattice="10.953064772841406 2.0414019778866393e-15 2.391532347210215e-15 2.041341254603979e-15 10.953064772841403 9.315213603459425e-16 1.1956332070866667e-15 4.658151368277192e-16 5.476532386420701" Properties=species:S:1:pos:R:3:momenta:R:3 pbc="T T T"
Si       1.34785789       7.69572369       2.37960231       6.69449166       3.37132122      -2.05004508
Si       1.83113180      10.01767859       1.80721936       2.47444489       1.07185161       1.40360861
Si       8.24403237       7.46151137       2.80372409       1.01490607      -1.23281649      -4.93390704
Si       6.33697829       8.81758972       2.25795992      -1.46084466       4.14969306       1.45195731
Si       8.31570215       7.76190434       5.15815715      -2.35542860      -1.92929133      -0.20955778
Si       8.70167201       1.20538185       1.75256948       0.19228556       0.50001472      -3.18344659
Si       5.47711360       3.56334812       5.36920630      -6.03508756       1.68454643       3.26593641
Si       4.87891546       1.12501805       3.27652886      -3.54666320       2.48123352       2.54264623
Si       5.08424487       1.23582630       0.18241414       1.82483075      -3.04844441      -2.03180694
Si      10.42583103      10.48423972       1.45795856       2.18638965       2.05535711      -0.97987256
Si      10.51024396       2.76472899       4.50195211      -0.18959187       0.17931904       3.92565297
Si      10.24042688       4.82689115       3.38932757       3.51103362       1.78716509       1.20386428
Si       3.50349243       4.68263043       4.76455961      -1.79663478      -3.65536127       2.71477728
Si       2.14870309       4.02415475       1.14867397      -1.13594092      -2.91026549      -3.45351462
Si       9.75331270       5.86544677       5.44075452      -0.16982029       1.84233795       0.33997940
Si       3.34281380      10.30615019       3.62242200       4.87502174      -1.29031203      -1.99904793
Si       3.96977822       5.11263078       2.23346500      -1.34061927       0.65629278      -0.55789811
Si       8.86626279       3.47145610       0.70609835       5.29043375      -2.70832566       1.11483017
Si       8.81202937       1.18606652       4.09939184      -0.04291953      -2.92436063       8.32347273
Si       6.04966921       7.58946550       0.29917909      -3.06935191       1.02722011      -0.38234097
Si       3.24470149       2.93432376       3.08477134       1.48043845      -1.51084607       5.18359415
Si       2.83597547       0.38966963       0.15258638       0.74774447       1.68697353      -1.51745560
Si       3.11772687       6.76277384       3.63481248      -0.15753915      -0.21568612      -1.49953537
Si       9.46233936       9.88107966       4.90091532       0.75907681       0.39550334      -3.00882955
Si       7.99223752       4.88239862       2.54227750      -1.20454628      -1.23907446      -0.82569140
Si       1.80073813       2.38587385       4.95108692      -0.54313515      -1.03865607      -1.22132563
Si      10.24100809       8.72360643       3.00831903      -3.28138578       0.89214100      -2.21056319
Si       4.73945743       8.40711708       3.95811381      -0.25015046      -1.25893412       1.54180650
Si       6.50187312       0.23035774       1.77309497      -9.27643373      -1.76845584      -0.05973849
Si       0.50556904       5.66102811       1.54600036       1.77789959       1.80974665      -3.90210750
Si       7.46612952       3.22972354       4.22852435       2.24020645       0.59082269      -0.78541821
Si       6.04050976       5.36874660       1.24881617       0.78688968       0.54929014       1.79997652
32
Lattice="10.953064772841406 2.0414019778866393e-15 2.391532347210215e-15 2.041341254603979e-15 10.953064772841403 9.315213603459425e-16 1.1956332070866667e-15 4.658151368277192e-16 5.476532386420701" Properties=species:S:1:pos:R:3:momenta:R:3 pbc="T T T"
Si       0.81512436       7.77201726       2.49569763       4.06366875       2.58428060       1.89413116
Si       0.67434895       9.11285075       0.60237038      -1.01962313      -2.22801248       1.00420707
Si       5.93098423      10.41352432       3.59791975       0.69500167      -0.14229774      -0.35732554
Si       6.99199266       9.43933138       1.69174370       4.88847417      11.23438761      -0.43554693
Si       8.28898897       7.50918144       1.26500645      -0.86331709      -0.89109355       0.46429079
Si       9.88690221       1.34693377       1.85059391      -2.07293687       2.81684982      -2.71288847
Si       5.88280226       2.88474852       0.06854209      -4.10940391      -4.98778985       1.51985183
Si       4.24404035       0.03485787       2.07274672      -6.16868349       0.40311519      -2.34918724
Si       3.89795692       2.05569319       0.94055010       6.05378522      -5.75159393       0.50531030
Si       8.40986926       0.03503716       0.60275758      -6.14806475       0.94186534      -7.60395294
Si       9.06092952       3.83885791       5.32190498       2.24099005      -2.18583764       4.01603358
Si       0.18196605       5.04936322       4.80444609       0.95564731      -0.91444329       3.32675885
Si       1.29926694       5.85587995       1.32689482       4.65063374       0.94110281       1.17690897
Si       0.21256412       3.02758313       0.72702863       1.42771857      -2.49138285      -1.59256132
Si       8.79249081       6.13657618       4.71910011       1.13673920       2.20975121      -5.07621975
Si       2.33368649      10.91602679       3.47002241      -8.14919644       0.59647683       0.30614277
Si       3.63829595       6.09170470       1.35322452      -3.88332233      -2.92828937      -6.93113793
Si       7.33306172       3.85188180       1.76956458      -1.01876551       1.15413011       1.05214919
Si       8.56770143       2.57159075       3.34223098      -0.53510359       3.80896793      -0.92478405
Si       5.15067309       9.53082068       0.23630690       0.38287794      -3.64759031       0.71852977
Si       3.43458321       3.83889123       2.32528075       4.76454638      -3.23705953       2.61158736
Si       0.98201190       0.22863651       1.59357339       2.34276117      -2.72191412       4.46408093
Si       2.08729231       8.68975724       4.26004800      -0.36028243       3.07682655      -1.54354689
Si       9.49912233       9.13421869       5.16721562       2.34886753      -1.17639453       2.00523517
Si       7.24817008       6.01024524       2.78938521       0.11715938      -2.43312948       0.16160825
Si       1.90508322       1.52662997       5.29054460      -1.03542179       6.84824720       2.03435328
Si       9.58529675       7.81005583       3.22750212      -1.10947888      -1.31104410       1.11446274
Si       4.97485241       6.41395612       3.27694815       0.56275198      -0.10205973      -8.59035326
Si       7.14498640       1.19719904       4.53234113       2.73023504       0.65998384       5.64026292
Si       1.11532437       4.03333807       2.78029541       0.36243842      -2.04541411      -0.63717511
Si       5.33374141       4.11605440       3.64510729       0.74851379       3.82888103       1.88991794
Si       4.02517271       7.58109869       5.05705649      -3.99921015      -1.90951947       2.84885654
32
Lattice="10.953064772841406 2.0414019778866393e-15 2.391532347210215e-15 2.041341254603979e-15 10.953064772841403 9.315213603459425e-16 1.1956332070866667e-15 4.658151368277192e-16 5.476532386420701" Properties=species:S:1:pos:R:3:momenta:R:3 pbc="T T T"
Si       2.01196468       9.29063085       2.34023244      -4.27435766      -1.43862498      -2.51705077
Si       3.60557297       8.29234096       0.66081554       1.87944047      -4.01694780      -2.71078555
Si       6.36778534      10.14790282       3.55979224      -4.73413228      -3.52689689      -1.02735601
Si       7.20847781       9.04099787       1.66439308      -3.86412357       5.80403895      -0.40036349
Si       8.35987623       6.99623213       1.05101636       0.55032120       0.84290689       3.72552621
Si       0.86551337       1.82603175       2.86076935       2.06036648      -1.54123876      -0.09862796
Si       5.23188943       2.29700296       5.11780790       0.86484412       0.06514234       0.53806809
Si       4.63816328       0.89806493       3.34589848       2.35342627      -0.61102514       7.53479726
Si       4.28604022       2.68627347       1.71986634       2.71569734      -2.13851953      -1.29839222
Si       9.28516612      10.07006461       1.41674376      -0.15758237       1.51629601       4.36125709
Si       7.48749302       2.76547403       4.78305273      -1.63953555       0.97822093      -0.04246701
Si       0.34624838       3.16884298       4.77305816       3.52026606       0.65450025      -0.20200770
Si       0.85882156       6.56800851       5.10762827       1.60222309      -1.62901936       2.73538122
Si       1.95438672       3.03596816       1.09883205       0.86439194       2.74400465      -2.63365143
Si       9.96530405       7.98528035       5.08694618       0.24649185      -1.96415144       0.11047425
Si       2.42534798       0.22618622       3.65228157      -1.50748604       5.81581447       7.49278731
Si       1.61304345       5.34372974       1.56846363       1.32434648      -3.13382401       0.65590320
Si       9.26978753       3.20975643       0.77812149       4.93878704       0.63521661      -2.46998559
Si       9.60787110       1.32089335       2.14573008       0.22069637       0.87985958      -2.67399855
Si       5.81603006       8.57571834       5.30908067      -6.81665128      -0.38205116      -4.90635552
Si       5.37719947       4.93151707       1.85713313      -3.12146538      -0.92675762       1.28762397
Si       1.40103226       0.10858911       0.29366685      -0.51719090      -1.25470680      -1.65198531
Si       2.66509886       7.64550199       4.07453863      -1.24676718      -0.79814254      -0.59523832
Si      10.25081740      10.40938058       4.82832884      -0.23560929       1.42771049      -1.05112152
Si       9.02005822       5.10425868       2.29944573       3.69689130      -3.82050102       1.47182566
Si       3.78591129       3.96731722       4.25355907      -2.80189888       1.80532363      -2.93984462
Si      10.64665484       8.93024851       2.93911834      -2.11269900      -1.70430363      -0.41712390
Si       3.58204665       6.46330396       2.20085802       0.74118316       3.32422764       1.44954877
Si       8.27797950       0.68667713       3.97353711       4.41935575      -2.52870447       1.04402730
Si       0.15690422       5.11349273       3.42093152      -0.57789926      -1.03531743      -2.50222509
Si       7.05330697       4.77107657       3.56703320      -3.99212146       2.48140185      -1.06359877
Si       6.46055518       6.17777777       5.40833450       5.60079120       3.47606826      -1.20504102
32
Lattice="10.953064772841406 2.0414019778866393e-15 2.391532347210215e-15 2.041341254603979e-15 10.953064772841403 9.315213603459425e-16 1.1956332070866667e-15 4.658151368277192e-16 5.476532386420701" Properties=species:S:1:pos:R:3:momenta:R:3 pbc="T T T"
Si       0.66576654       9.37039708       1.59395655      -3.90187332      -3.40210377       0.42429508
Si       2.58810230       8.46730896       2.60665527      -4.10244516      -1.04807479       0.14188152
Si       6.38505405       8.83361454       3.69890452       3.02173019       1.40169901      -2.96831772
Si       7.96428423       9.01197274       1.98240749      -2.22764063      -3.17014713       5.77576572
Si       6.76133259       7.89609057       0.31286383       2.83199352       0.60656339      -1.22589141
Si       1.62449318       1.78228030       0.61747137      -0.06245801      -0.69981412       5.56524025
Si       6.02279692       2.86665887       4.57556114       0.10241566      -1.12097840      -0.79904942
Si       5.15282086       1.55677831       2.75531077       2.75865863       4.49611230      -1.69861132
Si       4.72985784       4.20916693       0.59685291       2.44428633       1.08657769       1.17789337
Si       8.27893222       0.22275705       1.20330535      -2.81449986       0.21209093      -5.48443395
Si       9.58373831       2.90906247       0.04266795       4.09001116       2.79329587       2.37417440
Si       0.74830184       3.52155603       4.68463603      -0.04927555       0.53605145       0.34581506
Si       3.23565587       6.00744015       0.13260313       3.86427677      -0.30824533      -3.57084356
Si       1.10419568       5.19215048       0.78510801      -0.19316316       0.64527130       2.04561157
Si       7.91932250       5.85435817       0.30232770       0.15299813       0.67866567       2.65083337
Si       0.72462206       0.57493400       2.57372314      -3.60014779      -1.56591667       0.61339435
Si       3.06982068       6.29289128       3.33773292      -1.33199991      -3.77782766      -3.29882435
Si       9.68952286       3.80481059       3.02090219      -1.56260279       6.93423123       2.88306389
Si       9.49878314       1.44350834       2.77185613       1.00161764      -5.68491530      -3.04553786
Si       5.16101741      10.75680853       4.31351624       4.67061071      -3.88542081       2.22818548
Si       3.38096030       2.72319376       1.80245251       3.84009582       0.94589987      -4.32192715
Si       1.14896138      10.73326051       5.02150604      -2.40498871       2.18951675      -4.72154090
Si       3.18645041       9.57467494       4.60524367       7.38370235      -1.64116199       0.71281232
Si       9.76283175       0.57333412       4.92406849      -0.36999117       3.23728495       1.78101465
Si       6.42814297       5.17815989       1.99169546      -2.28936371      -4.75935132      -7.35780721
Si       1.98719713       4.29080481       2.79331397       0.91042124      -1.76362608       1.41317451
Si       9.98811143       7.98494884       2.57898882      -3.93932515      -3.12602146       1.73411759
Si       5.22858656       7.04632954       2.67255733      -1.49854227       5.90655535      -0.19649860
Si       6.18948083       1.06630300       0.63397180       1.95385197      -0.96034038       1.16201518
Si       9.94773844       5.81850340       1.58801553      -3.17531776      -2.68952571       1.50906980
Si       7.61843829       4.41678138       3.92631418      -4.86305952       1.68438063       3.62206450
Si       4.10702759       8.07370220       0.80439526      -0.63997566       6.24927453       0.52886083
32
Lattice="10.953064772841406 2.0414019778866393e-15 2.391532347210215e-15 2.041341254603979e-15 10.953064772841403 9.315213603459425e-16 1.1956332070866667e-15 4.658151368277192e-16 5.476532386420701" Properties=species:S:1:pos:R:3:momenta:R:3 pbc="T T T"
Si       0.39555938       8.33325226       3.80157575       2.84385133      -2.06577266      -1.33204824
Si       4.11457541       8.83978813       2.55704728      -2.60388746       1.20828456       0.73784155
Si       5.89924994       7.96949590       4.67658096      -2.91917931      -3.86087382      -4.50659745
Si       6.13469569       7.84520596       1.50897622      -2.36162410       5.09054149      -2.97703447
Si       9.76727718       7.22250425       5.32898719      -0.86646734      -0.47938774       3.24595556
Si       1.41034917       0.43907795       0.94362744      -0.38576893      -1.04243830      -0.40127791
Si       5.56907416       4.18119409       0.08767417       1.29328206       0.02098021       4.09668252
Si       4.86893829       0.63926128       2.74061838      -1.84759357       0.85193671      -0.35701071
Si       3.34594983       3.45339284       5.19146435      -1.29888423       0.36335833       1.20798303
Si       8.79140583      10.41056027       1.83550076      -1.04593484       2.19615027      -1.11593553
Si      10.40385951       3.08882850       4.03905287       4.63408593       1.52156376       3.10304121
Si      10.75417615       5.01977816       5.44229077       5.43207238      -2.51579941      -0.89368078
Si       2.05891822       5.35939968       4.75165526       2.08184976       1.55515158       3.28721262
Si       0.25079489       4.19230496       2.09349682      -0.00725246      -0.60524960      -1.47853219
Si       7.93253815       7.04591772       3.87525881      -1.12735581      -0.07858835       0.09066382
Si       0.78637163       1.10813651       4.24393658       1.02823697       0.75450755      -0.11494253
Si       3.36372340       6.67019503       2.01863078       1.98958290      -0.51087061       2.26622564
Si       7.31841232       2.72657671       0.65740127       3.92623303       2.13805635       1.18826177
Si       8.10789601       2.63696729       3.93178487      -0.49930402      -1.49225035       4.21838819
Si       4.97462040      10.11100030       4.54462414      -0.18225225      -5.04835383      -2.69494430
Si       2.01312571       2.67737141       1.52857308      -1.20603835       2.35458676      -0.99650777
Si       3.60520833      10.49484664       0.97025184      -0.82698009       0.40356101      -1.91735663
Si       2.58431892       8.94779875       4.54219129       4.63650789       1.27873518      -1.13185666
Si       0.01893588      10.44819000       2.68018585      -1.22993987      -0.25967061       4.71934410
Si       8.61007014       4.24385509       1.95775087      -0.71688264      -0.57824403      -0.55282328
Si       2.98792864       1.90571627       3.49731294      -0.51864820       2.36116630      -6.09914807
Si       8.45561291       8.08952062       1.78421413      -0.97410852      -6.07479412      -0.16818801
Si       5.46073496       5.61450056       1.92691331      -1.79317402      -2.62202287      -2.33062265
Si       7.19206602       1.10336569       2.36119948      -1.36096836      -0.71319043      -3.53990720
Si       1.19153844       6.25455096       2.77473586      -0.59801095      -0.58770062       4.38662564
Si       6.89101390       4.93403678       3.65616106      -5.55913073       6.06588059       1.84862027
Si       3.67034400       7.00101597       5.20734086       2.06368380       0.37074673      -1.78843152
32
Lattice="10.953064772841406 2.0414019778866393e-15 2.391532347210215e-15 2.041341254603979e-15 10.953064772841403 9.315213603459425e-16 1.1956332070866667e-15 4.658151368277192e-16 5.476532386420701" Properties=species:S:1:pos:R:3:momenta:R:3 pbc="T T T"
Si      10.27288352       8.88835384       3.55841973       0.71272303      -0.12923449      -1.24957683
Si       2.70304701       9.99008097       0.45827560      -2.28842814       2.64085988      -2.94961482
Si       6.76719855       8.37000814       2.74249956       2.69981398      -4.71547562       3.28261016
Si       5.72909012       7.79169827       0.72871500       4.00066193      -1.29475869      -5.34719278
Si       7.20410291       6.94018821       4.60685848      -3.33029058      -3.55696556      -2.62890238
Si       0.00352712       1.51192645       2.04385354       0.97202514       1.90670347      -0.62352796
Si       5.29367725       2.91155495       0.31949357      -3.90880646      -2.53152258       4.33538504
Si       5.93454033      10.52377499       3.42488400       1.15117740      -2.26611743      -2.07635917
Si       2.60655432       2.91188536       5.07799875      -1.68690688       2.08378126      -2.88438148
Si       9.46566971       1.68204875       0.17034199       0.06922585      -4.74519409      -1.61690497
Si       7.00332417       4.55636632       4.74210529       2.07921121       1.75419967       3.61790735
Si       0.77839814       4.45742872       4.79839916      -1.59327313      -8.46232333       4.00490686
Si       1.86869884       6.44218851       4.24103119       0.89545707       1.04374928      -0.23914635
Si       0.54890920       3.76474165       2.55287379       3.48631516       1.05506839      -0.55608438
Si       9.34190294       7.60385555       5.40071719      -5.47915160       3.50804012       0.39856663
Si       2.25448819       0.67072735       2.08738862      -0.58580758      -3.80990270       3.80491739
Si       0.63978468       7.24098003       2.43194139       0.61474487       5.35443324      -1.40276282
Si       8.56726281       3.85058927       0.87717346       3.28852332      -3.93475023      -2.23418505
Si       7.68105396       1.19927063       3.56506337      -2.56128668       0.37841429      -0.89515582
Si       4.96452692       9.90016785       5.45504814       2.32298890       4.68843345       0.06354167
Si       2.76063985       2.97737145       1.93462785       3.33064058      -1.80174574      -4.01359064
Si       5.77336380       0.68772151       1.29295947      -0.96616228       2.21443125       3.76913113
Si       2.19756817       7.67687270       0.74902888      -4.05688061      -2.18938611       0.35712523
Si      10.62523066       0.32285845       4.04621862      -1.19110750       4.00883152      -2.56747970
Si       7.06514177       3.38867271       2.71447007       0.01830764       5.86027063       2.71080665
Si       1.97921171       0.63019685       4.39400601      -3.10442202       0.48195306       4.18011024
Si       8.77875428       9.01763127       1.75898753       2.53676065       0.40761998       0.17497668
Si       4.09159737       6.16569707       0.94084408      -0.86358410       1.36175590       0.00802989
Si       8.12198875       0.30122200       1.41412187      -1.61920322      -0.44723188       2.07500286
Si      10.39733773       5.44801055       1.01436363      -0.98599960      -0.29320338      -2.61554400
Si       4.72357199       4.30350739       2.29721619       1.69587847       4.60898037      -0.62409592
Si       3.73930140       4.97387923       4.36402444       4.34685520      -3.17971394       1.74148730
32
Lattice="10.953064772841406 2.0414019778866393e-15 2.391532347210215e-15 2.041341254603979e-15 10.953064772841403 9.315213603459425e-16 1.1956332070866667e-15 4.658151368277192e-16 5.476532386420701" Properties=species:S:1:pos:R:3:momenta:R:3 pbc="T T T"
Si      10.61319234       7.99974700       0.00181078      -2.69533044      -3.82498325      -0.08217596
Si       1.42327625       8.10886962       1.57526714      -1.18668667       2.36396894      -3.93511326
Si       7.80246958       8.17410903       3.35429340      -3.90216131      -2.29736998      -2.14182720
Si       6.99875096       7.62162824       1.24834122      -5.38032384      -0.26538783      -1.83209547
Si       8.94432487       6.36816968       0.37722027      -1.07634844       3.43343637      -2.56574399
Si       9.99514815       2.79849136       1.43146246       6.89218750      -0.56026276      -1.03379428
Si       7.37183587       1.55087435       4.06481240       2.58157629      -5.00053993       6.72611430
Si       5.17906158       1.35750805       3.20588288      -2.62691497      -6.90664513      -0.37757462
Si       1.96753190       0.98104326       0.09817000      -0.02646790       2.56300148       1.64110054
Si       9.78757972      10.15536555       0.36891613       2.39909492      -3.19728996      -3.60191443
Si       9.35762701       2.76486186       4.67309634      -0.02949669      -1.30932563       0.38018495
Si       1.43450072       4.84500254       4.57126687      -2.25033697       2.73269855       0.39134760
Si       3.15439436       6.84903655       4.46884785      -1.47991972       3.49804532       2.83366935
Si       1.41123127       3.18666337       0.82872310       0.29093416      -0.59053293       4.52526359
Si       7.28104456       6.02954121       4.15939819       3.09281685      -1.06174365      -0.13740796
Si       1.97830310      10.41345778       1.93513865      -1.28882529      -0.61346850      -3.72055642
Si       3.07867095       6.51923103       2.11811329      -4.09923438      -1.05320286       1.43893842
Si       9.01230325       4.79939835       2.09061695      -3.36696078      -0.82173058      -0.28541540
Si       8.68223474       0.94882883       2.19423449       0.60177747      -2.31255924      -3.27867972
Si       6.34676510       9.11618833       5.07290567       7.28565687      -6.39143772       3.65656181
Si       2.53431742       4.26071036       2.57181130       3.43273082       2.29008659      -2.38665520
Si       3.33285963       0.01379453       3.86571361       3.19098370      -0.46181947      -4.56756935
Si       3.95785977       9.04019671       5.08973781       5.86639133       1.32506652       1.83324645
Si      10.63510636      10.52698322       2.61269383       1.52177115      -1.65319551      -0.45069231
Si       6.67366686       4.42785677       2.43335165      -5.73920600       5.90009518       2.61322651
Si      10.79930055       0.85496723       4.56256039       0.33467604       4.04489319       0.96740735
Si      10.34408561       8.25379511       3.16022036      -4.23059288       2.29359151       0.18606898
Si       5.30757078       6.04761556       1.46822144       2.65228446      -2.03827113       5.68335823
Si       7.58680547       0.00683549       0.30471405      -0.94306252       1.37083915      -1.12208271
Si      10.05529261       4.98522814       4.16438102      -4.23556267       4.22844625      -0.90439410
Si       4.63990969       3.58937444       3.38781055       2.24340349       1.51367589      -0.14147036
Si       5.05452144       5.45916824       4.74421637       2.17114643       2.80192110      -0.31132534
32
Lattice="10.953064772841406 2.0414019778866393e-15 2.391532347210215e-15 2.041341254603979e-15 10.953064772841403 9.315213603459425e-16 1.1956332070866667e-15 4.658151368277192e-16 5.476532386420701" Properties=species:S:1:pos:R:3:momenta:R:3 pbc="T T T"
Si       0.53067166       9.02031889       2.97274591       4.98927332       4.70625928      -1.50605949
Si       1.52959762       9.88018258       1.04457705       3.35563811       0.82018244      -1.57199104
Si       6.34869577       9.08897716       4.16554608      -1.90053835      -0.55369145       1.22315222
Si       7.22481966       8.42849566       0.87618898      -3.29937129       1.99750976       6.90244711
Si       8.90794743       6.83031533       0.42991202      -2.53890036      -2.71803091      -1.92524106
Si       0.47624303       1.83134216       2.69354064       0.92194819       3.51920911      -4.47800926
Si       6.86129794       2.52745087       3.30003030      -4.68909841       4.45684109       0.65023233
Si       7.79497172      10.15554433       2.49640681       0.56581025       3.69041095      -5.35633047
Si       3.26696257       2.80347785       0.08128180      -1.30288986      -0.21132319      -2.36678811
Si      10.70324642       0.47346584       0.25490327      -0.36887363       0.95008506       0.44368278
Si      10.48032326       4.20067882       5.32587247      -8.25251332       5.69164290       0.88168950
Si       0.98566038       2.36371051       4.95765041       3.10108895      -0.19690985       5.26278312
Si       2.62863908       6.35722199       4.38433812       7.07995033      -0.57921834       6.81507356
Si      10.60227013       3.93315346       2.17346879      -4.90156712      -1.42900866      -4.28291351
Si       8.25880541       6.41550595       3.56281692       2.67319938      -8.50783218       2.53742143
Si       3.40212553      10.91662581       2.08778625       5.61011204      -5.29358278      -3.07048585
Si       4.30273122       5.76734336       2.79170549       0.51394279      -0.73681578       2.29633875
Si       7.97677258       4.50455046       0.34269361      -5.09282194       2.24816223      -2.43781685
Si       8.22838893       2.07647038       5.26059422      -0.04003297       1.39295057       1.90785575
Si       4.20782674      10.06934945       4.13651649       2.55578123       0.91416167      -2.19789914
Si       3.69838987       5.11598740       0.61181632      -2.24613157      -1.26333874      -5.72115434
Si       4.67831604       0.78679469       0.33037929      -4.31058592      -3.95657919       0.36950504
Si       2.27609331       8.70242028       4.60581487       1.69280703      -1.49053322       1.97561380
Si      10.02418593      10.83788044       3.39340654       2.77660655      -0.39162763      -2.04092053
Si       8.31190362       4.24636294       2.64250992       4.66413392      -1.26495071       2.21444200
Si       2.84603618       2.20201127       2.36941653      -2.87108676       3.74716630       0.05670406
Si      10.22407901       7.10753469       2.46500996      -0.26902105       0.30089364      -0.70670072
Si       6.20547065       7.23158383       2.73227964      -4.68879400       1.32323230       1.91414083
Si       6.81974458       1.07985445       1.42520204      -3.09151806       0.16268613       3.67501005
Si       0.53463259       5.52078663       3.66893215       2.61586567      -1.24457402      -0.96769096
Si       4.68065162       3.45524874       3.57507661       5.90706305      -5.26675718      -0.98788450
Si       5.81791246       5.07696035       5.04553097       0.84052376      -0.81661959       0.49179354
32
Lattice="10.953064772841406 2.0414019778866393e-15 2.391532347210215e-15 2.041341254603979e-15 10.953064772841403 9.315213603459425e-16 1.1956332070866667e-15 4.658151368277192e-16 5.476532386420701" Properties=species:S:1:pos:R:3:momenta:R:3 pbc="T T T"
Si       2.17093639       9.16155968       3.43580215      -4.73652354       0.17723107       1.93129904
Si       2.62464606      10.66146755       5.34319088       6.84729770      -0.14765048      -0.77362500
Si       6.00418768      10.23160090       2.49775065      -1.62756200       6.73666459      -0.56633565
Si       6.67534240       9.14292836       0.14417303       0.80515930       5.24151983       5.83100841
Si       9.84365956       7.28211447       4.77677435      -1.55290080      -2.76794355       1.32968900
Si      10.79375771       1.29767362       1.90588987       7.81621165      -1.44230089      -1.92435603
Si       5.82276774       1.86994018       5.23112527       1.85077811      -4.72109261       2.76017102
Si       6.96260324       1.35041600       3.22272763       1.60961298      -2.14815619       1.09669102
Si       2.63144767       2.12601598       0.13088565      -2.64549557       3.24068155       0.75115050
Si       9.98264507       9.16740020       0.73049360      -0.87070327       0.16544303      -6.25377194
Si      10.04540409       2.34154065       5.37837995       6.03929129       3.85770261       3.13225660
Si       1.05929869       3.42209742       4.53692338       3.35758487       0.58253715      -0.74169587
Si       1.80607417       5.55379141       5.39350618       0.33480859       3.85038874       0.92297198
Si       9.47556831       5.82943814       1.15170058       3.86133662      -3.23058561       3.62028424
Si       8.32243067       6.73184805       2.98609728      -1.40318592       4.49572485       9.87226984
Si       1.03282517      10.20188209       1.56193856      -6.43745728      -4.12591610       1.67727310
Si       4.08087907       5.39974420       0.44481955      -3.45509354      -4.10871682      -4.52666288
Si       8.39273209       3.94002748       0.33198718      -3.79581274      -3.12414411       0.75832100
Si       9.22638964       0.98679466       3.66261167      -0.55505631       1.41745514      -2.13525571
Si       5.19541813       7.36540221       5.16867280      -1.18599025      -0.99606421       0.20346222
Si       4.98017703       4.53639627       2.47282289       4.15866144      -2.02693678       2.69556483
Si       4.94669590      10.74400739       0.45813238      -2.32581545      -1.23806621      -4.67196522
Si       1.03285496       7.04393854       3.76862509      -1.60114562      -2.40358988      -4.36564013
Si       8.62562523       9.78921218       4.37795002       4.12198483      -0.44660976      -6.63458211
Si       7.53080895       4.57119592       3.70243350      -1.58687455      -1.85584367       1.63374293
Si       1.38068965       3.09462102       2.22311788       0.32959764      -0.61063561      -1.96292199
Si       8.10478507       8.93485142       2.17704036       0.70396143      -0.93341991       1.66056190
Si       4.48386970       8.57354211       3.23288590      -0.13231310      -0.33882917      -0.02673701
Si       6.67048413       3.07195626       1.66354970      -6.25473838       2.78048953      -1.23087193
Si       0.69396034       5.44308941       1.96092448       0.18425468       1.26154439      -0.89400761
Si       4.30096718       3.49565354       4.53569808      -1.25618637       1.07223802       2.62997052
Si       5.93548124       6.59852403       3.07185237      -0.59768644       1.78688107      -5.79825908
32
Lattice="10.953064772841406 2.0414019778866393e-15 2.391532347210215e-15 2.041341254603979e-15 10.953064772841403 9.315213603459425e-16 1.1956332070866667e-15 4.658151368277192e-16 5.476532386420701" Properties=species:S:1:pos:R:3:momenta:R:3 pbc="T T T"
Si       2.50372047       9.82072311       4.13287926      -4.35609595      -2.97482544       1.08179217
Si       0.97214938       0.14097064       5.31562431      -3.18266672       0.20535603      -0.83175624
Si       7.58699131       0.31204592       3.40073639      -1.30672578      -0.48871774      -2.72250493
Si       6.49004160       8.80736244       0.90064314      -0.07016329      -0.27518803       0.62324898
Si       8.02934547       7.31726347       3.85447492       1.02277593      -1.16018858      -1.18016587
Si       0.25299366       2.17747019       2.44643448       7.55993984       0.60257303       0.55359196
Si       4.65595102       2.17421497       4.11046974      -1.52937363      -0.27925880       2.20882556
Si       5.97848967      10.94343308       1.70119655      -0.82498993       3.94703080       1.78721207
Si       3.44980563       2.87361443       0.49963330       7.86940054       2.12518790      -4.82996079
Si      10.11655243       9.77793552       0.63549116      -7.08221199       2.00724991      -0.89752396
Si       8.75142105       4.97275188       0.76846708      -1.49963439       2.95791181      -2.48576530
Si       1.60794477       4.11203747       5.21916967       5.24142447      -2.60492446       0.09461552
Si       2.41860892       5.92550505       3.81762136      -4.73025934      -0.84521458       5.47272343
Si      10.95252372       4.33637683       1.48459455       0.72078289       4.89406611       0.48829673
Si      10.05944869       6.48671637       4.65811528       2.54781492       0.63401235       3.18252112
Si       2.21490905       1.18488323       1.53844515       1.40944599      -0.42272063      -2.24413883
Si       0.39197408       7.72858805       0.81289322      -3.81510724      -9.70132986      -5.17661738
Si       8.83019473       2.27704632       0.45685111       1.56474891       0.48358342      -4.94145542
Si       9.47790700       0.62613518       2.05296772      -2.14020408      -1.48656989      -2.69334998
Si       4.79254553       7.16309831       0.69944916      -2.31967106      -1.84930025       5.78577719
Si       4.98450048       3.57520237       2.18687052       0.20639925       0.78568496       0.54331538
Si       3.89127754       0.26628583       2.91520941       0.16410388       2.76946206       1.78898618
Si       2.63426750       7.77699774       5.26933514      -2.34697373       3.07185345       3.40716969
Si       8.13955982       9.44297893       4.76418967      -4.16880468       0.81761367      -0.88773883
Si       7.42694070       3.52737838       2.19809745      -7.54551739      -5.52609075      -4.28202315
Si       0.08254632       2.27780583       4.72443895       1.08910205       0.14617474      -1.25633725
Si       8.29838095       7.35114914       1.55841953      -1.44052021       2.90809737      -0.90095838
Si       4.49626162       5.81576663       2.66067913       5.66500719      -4.38340013      -1.64122335
Si       6.65245743       1.51981310       5.21709937       4.86751648      -0.98132912       3.34941886
Si       0.42001245       6.28017436       2.70385538       1.85639233       3.38396723       0.41193055
Si       7.28060732       4.01954957       4.55733806       1.98669751       2.35298664       0.36632652
Si       6.04201787       6.09020268       4.41879271       4.58736723      -1.11375322       5.82576776
32
Lattice="10.953064772841406 2.0414019778866393e-15 2.391532347210215e-15 2.041341254603979e-15 10.953064772841403 9.315213603459425e-16 1.1956332070866667e-15 4.658151368277192e-16 5.476532386420701" Properties=species:S:1:pos:R:3:momenta:R:3 pbc="T T T"
Si       1.35464313      10.83864304       5.14631106       0.83752136       1.07969081       3.23954774
Si       2.42902420       8.86776184       0.15997123      -0.04920740       6.30279641       2.62797613
Si       8.25029783       8.59452999       2.88550929      -2.01081527      -3.42696035      -4.07255045
Si       6.78209510       9.92343534       1.19272955      -3.37802306      -3.46034451      -3.66963018
Si       7.34237077       6.34993799       5.10060573      -4.28433430      -3.12145642       2.49527512
Si      10.69856451      10.93252584       1.34852058      -8.80839826       2.48290018       2.02118129
Si       5.04802909       1.36901488       4.54574063       0.19688102       2.18750437      -3.68424022
Si       5.19204954      10.58101362       2.97090149       2.90684278      -3.07284465      -0.51798263
Si       2.93987706       1.58430224       0.00764681       2.47764395       0.93135212       3.37347425
Si       8.93078161       1.39529606       1.70167189       0.78228435       0.20091746       4.14879721
Si       9.49019989       4.33415858       3.63105606      -3.42582090       0.99884217      -0.19375044
Si       0.12073863       4.23422531       5.30389758      -4.74191684      -3.80199387      -1.18767698
Si       3.16330912       5.73773361       4.56189398       0.03507864       5.16769003      -2.78776443
Si       9.58357829       3.59212999       1.41382152       1.71553751      -2.55945878      -3.65374868
Si       8.19296373       6.21802596       2.98404426       3.04319073      -1.07657221       0.44637402
Si       1.14320649       0.73658627       3.02603502      -0.50340464       2.66689804       6.07595869
Si       1.76486697       5.42553261       0.94487275       7.67477341       0.16991456      -7.35035567
Si       6.54874223       2.82175817       1.87630091       2.03099301       5.06523304       0.60535937
Si       8.05364999       2.33283374       3.70018754       2.58830985      -1.02595901      -1.36256297
Si       4.74453531       8.63428136       0.73557684      -2.18551636       1.27745236       3.62754243
Si       2.72571804       4.30936796       2.79818502       3.86069349      -0.37670726       1.74714176
Si       3.31980994       0.80011256       2.14430986      -1.31847184      -5.18255102      -5.11945762
Si       2.35418291       7.73353415       3.62265936       0.44597163      -1.82541287       3.32049453
Si       8.30584522       8.52280226       5.26841593      -1.56407746       4.86018289       0.99564969
Si       7.55959767       4.80341528       1.27912342       1.34947885       0.60182163       0.30124771
Si       1.44195617       2.81089366       4.07463233       2.30536845       0.59035016      -1.16391059
Si      10.03274818       8.71064998       1.41405363      -0.80311680      -3.00023906      -1.12727047
Si       4.52939958       8.35016453       3.03419693      -2.10292007      -1.90633844      -1.90102836
Si       7.11657474       1.21792977       0.19823825       0.25489605      -1.42999696      -1.60330281
Si       1.12123014       7.58008379       1.65730204       0.95331956      -4.35299166       2.05312044
Si       4.43888663       2.77576605       2.74664027      -1.17186615      -2.54370880      -0.57424743
Si       5.16287546       6.88916014       4.72889872       2.88910470       7.57998968       2.89033953
32
Lattice="10.953064772841406 2.0414019778866393e-15 2.391532347210215e-15 2.041341254603979e-15 10.953064772841403 9.315213603459425e-16 1.1956332070866667e-15 4.658151368277192e-16 5.476532386420701" Properties=species:S:1:pos:R:3:momenta:R:3 pbc="T T T"
Si       0.80253525       7.85555620       5.41999280       1.97240115       2.80802412       2.58928415
Si       4.16205307       9.44315713       1.68324609      -2.16338807      -0.91921810       1.36217007
Si       9.59819441       8.67067295       4.77879720      -1.07812039      -9.13121441       5.86554631
Si       7.47569424       8.04651492       0.21623870      -0.30071089       1.39080109      -1.51973431
Si       5.85574396       6.78969349       4.51786829      -0.27359573      -2.55560142      -1.11981585
Si       0.35012748       1.09745604       2.66579255      -6.36333813       0.04436739      -2.78043896
Si       5.22904274       2.75427000       5.35362048      -0.63247408       1.60142235      -6.62743534
Si       5.87306494       0.61844175       4.31777302      -2.24056138       2.40913919      -0.77984000
Si       3.70201150       2.18072736       1.60278104      -5.27608939      -3.79216156       4.28453063
Si       9.55574110      10.63076896       1.93888987       4.59346537       1.93721480       0.12623346
Si      10.25505636       3.12066040       3.41013535      -0.05631057      -0.12300544       0.31180475
Si       0.47603690       3.70567599       5.37049840      -0.47211215       0.21572028      -1.87929017
Si       2.42781644       4.79111352       4.68687027      -2.68258448      -1.28774577       2.84495361
Si      10.12942353       4.73911113       1.61464708      -1.00357368      -1.20505311       4.58077536
Si       8.30532211       6.43226884       1.74054332      -1.19878838      -3.34436367      -5.93317214
Si       1.76816758       0.27440324       4.42111345       5.58569000       0.87355449       7.46431294
Si       1.90628407       6.77192211       3.66022495      -0.83406134       3.89945306       1.20354079
Si       7.42562325       2.73001402       0.86450088       3.86710497       4.70720814      -2.86835190
Si       8.54196496       1.81432164       4.40572563      -0.47518583      -5.51553083      -2.79536283
Si       6.27362557      10.06962325       0.74880597       1.27252658      -1.40295068       2.46779865
Si       3.98305302       3.60957493       3.42557645      -2.79854441       6.89599699      -3.39059788
Si       3.83579047       0.35953278       3.06766463       2.96992961      -0.76720773      -2.26619128
Si       2.71970983       9.20680147       5.28123339      -0.31121242      -0.17969743      -5.30488380
Si       9.94725705       0.01207450       5.11527379       1.24908784       5.28225695       3.58797134
Si       7.00216796       5.14484897       3.19324616       3.59988611      -6.19542737       0.54440431
Si       1.55556765       1.78769945       0.74794086      -1.30352950      -4.03363423      -0.47883215
Si       9.59636788       8.28211588       2.52077173      -2.81104462       1.16678843      -0.55294141
Si       3.98008083       7.87447173       3.44663374       0.25838804      -1.34273560       3.49824383
Si       7.40746430       0.73285312       2.29825073       1.98155540       4.67019583      -1.91224026
Si       0.38359256       6.76989436       1.94011715      -0.86654665       1.46317715       2.04066317
Si       4.80343352       5.55911962       2.47649388       3.44447864       3.89366433       0.87491086
Si       4.55433363       5.22611725       0.22574740       2.34725839      -1.46343722      -3.43801596
32
Lattice="10.953064772841406 2.0414019778866393e-15 2.391532347210215e-15 2.041341254603979e-15 10.953064772841403 9.315213603459425e-16 1.1956332070866667e-15 4.658151368277192e-16 5.476532386420701" Properties=species:S:1:pos:R:3:momenta:R:3 pbc="T T T"
Si       0.05544612       9.54535364       4.35200189       6.59565913       4.68136063       1.15696097
Si       3.47318218       9.41016795       3.29153912      -4.78114842      -0.25700188       1.66176223
Si       6.88339089       9.84589224       5.30516834       4.72493670       0.03738250      -1.44937119
Si       9.57296290       7.88441868       5.45527215      -2.56002503       0.31811224      -5.96566251
Si       7.31955260       7.50347335       5.02504421      -5.25044691      -0.69056591       0.64569155
Si       1.06390642       2.39918411       2.58474539       0.18842492       2.86174229       0.58822887
Si       5.59029241       2.46549200       3.62489629       1.29585834       6.71416814       1.04207491
Si       6.68643182      10.87904285       1.92722887      -3.65899909       5.03108619      -3.66687909
Si       3.76378532       1.21292323       0.15704385      -1.09305606       1.47609359      -0.21550193
Si       9.02632962      10.85941136       2.38140899       2.23516719      -2.39439207      -5.28216355
Si       9.44943474       2.42949971       5.11915910       3.98608765      -6.18144676       4.55791306
Si       2.50014964       4.70410835       4.16781035      -2.22184619       3.48867360      -1.82133926
Si       1.60637614       6.34997259       0.09266683      -0.33721358       3.21650303       2.02571291
Si      10.27437513       5.65779154       5.32483474       2.34016820       0.81474128      -0.47913257
Si       9.52272960       5.37235539       3.06319912      -4.46749570      -0.14688000      -4.05592707
Si       0.45640983       0.10572494       2.46323317       3.57254770      -4.68170870       4.61101644
Si       1.94384545       6.19227849       2.39506731      -2.78406930      -0.06798162       2.32019273
Si       7.16849160       3.13280350       5.31353648       1.67753215      -2.14284298      -1.40378788
Si       9.72454498       3.03438902       2.66258014       4.57520816       0.76552564       1.11230933
Si       5.22773021      10.83105267       3.94304260      -2.63846019      -8.72265337       1.54863131
Si       5.57040109       6.07907159       2.14690147      -1.82651296       5.87869799      -1.90552464
Si       2.46786757      10.43765480       1.37918810      -1.52254816       0.68774785       0.52021910
Si       2.14877552       8.74617334       5.18618041      -3.26382252      -3.41605403      -0.75512589
Si       9.04319574       0.02485845       4.83331359      -0.98251323      -1.67706816       4.11523338
Si       7.68537264       6.87911255       2.83263324       4.64974858      -4.14625435      -2.21687156
Si       1.74293207       2.59738670       5.08087027       1.43427907      -0.42005812       4.27669218
Si       9.22286670       8.51554523       2.16027810      -5.60776984      -2.05522711      -0.78965954
Si       3.77636910       7.57387995       1.89519458       1.11200105      -2.27238756       0.24933590
Si       5.76087516       1.97541502       1.33681528      -1.82058327       1.54945283      -1.30004454
Si       0.03195937       7.29708361       3.18485862      -5.08837779      -1.37525824       0.68936991
Si       4.81178316       4.66095898       3.86911127       3.74954572       3.13069733      -1.12432139
Si       6.31058243       5.35819549       0.07872375       7.76772369      -0.00420426       1.30996784
32
Lattice="10.953064772841406 2.0414019778866393e-15 2.391532347210215e-15 2.041341254603979e-15 10.953064772841403 9.315213603459425e-16 1.1956332070866667e-15 4.658151368277192e-16 5.476532386420701" Properties=species:S:1:pos:R:3:momenta:R:3 pbc="T T T"
Si       0.12216185       0.02025719       3.79428178       2.16320808      -4.62570594      -3.48099500
Si       3.51787519      10.11613992       2.41994039       1.31861601       1.10801731      -1.20677095
Si       8.02780066       9.20574171       4.29513906      -2.56970586      -1.08678681      -7.70928056
Si       6.53279040       8.97798297       0.54537692       5.89159269      -0.98160418      -0.43385742
Si       5.33638578       7.00892617       1.03819688       2.67193258       2.27195163       1.03470592
Si       0.97025656       1.98847011       2.44855340      -0.19606952      -1.95667208      -6.52908086
Si       5.83091600       1.86534713       3.91906242       1.68767096      -0.57733620       2.17661625
Si       7.64763305       0.42215909       3.37183580      -0.48373838      -7.52810962      -0.21974708
Si       1.72517364       0.88495467       5.24909354      -2.91522570       2.05053638       3.89274098
Si       8.22121613       9.49745042       2.03031637       3.09125307      -6.72534805      -4.06966861
Si       9.75515560       3.24388985       4.94179656       5.49480242      -4.77819150       5.16619033
Si       1.21849001       5.32771988       0.70398849       2.38919047       1.99636351      -2.52007563
Si       2.82696562       4.94003545       4.45403180      -2.46080599       7.25675242      -0.80731395
Si       0.92843369       3.02320831       0.38299110       1.84310320      -0.85025736       0.22068187
Si       9.55133551       5.45982159       4.15037313      -6.29905779      -1.57077853       1.21356856
Si       1.29699238      10.57631772       1.76821370      -2.18809350       1.53421526      -4.78727958
Si       2.01752489       6.26444556       2.70284532       0.49106250      -5.36666560      -1.21626960
Si       8.39399053       2.86869877       1.35145670       1.50605955      -4.39759454       0.75272276
Si       9.55651851       1.77488840       3.15564958      -4.53564913       0.41060328       3.82731095
Si       3.87946593       0.51047764       4.31790477      -2.32414598       2.22755775       7.43604447
Si       4.99228131       3.36457939       2.19433156      -7.13725293      -1.22079154       3.47390274
Si       5.08057674      10.82421645       0.77655034      -4.90603742      -0.28188529      -1.35258554
Si      10.92451714       7.20474585       3.24912991      -0.91734904       2.29134296      -1.01383279
Si      10.31112324       8.93444008       4.69475514       2.47202944       7.29900398       4.93954273
Si       8.26468210       5.08714122       2.24207184       0.60020053       2.68175442      -5.06310382
Si       2.96892350       2.78879557       3.42449837       0.88175225      -0.58242822      -1.23623808
Si      10.44205880       8.85646985       1.54416546       0.71452986       1.18833783       2.68082488
Si       3.35059726       7.88991646       1.80613339       1.33317919       6.08438780      -0.64024776
Si       6.22835045       1.98908945       0.76860052       1.40766039       4.40269399       4.64000605
Si       9.81343407       6.32159672       0.84829504      -4.80336482      -1.86891385       2.97198267
Si       5.99231778       5.47707251       2.71244073       3.95282145      -0.41084781      -1.41281711
Si       5.10946860       5.33954567       4.90193046       1.82583140       2.00639859      -0.72767684
32
Lattice="10.953064772841406 2.0414019778866393e-15 2.391532347210215e-15 2.041341254603979e-15 10.953064772841403 9.315213603459425e-16 1.1956332070866667e-15 4.658151368277192e-16 5.476532386420701" Properties=species:S:1:pos:R:3:momenta:R:3 pbc="T T T"
Si       1.07944299       9.27430082       2.34454421       6.58146782       2.37878611       2.26852651
Si       2.07567354       9.48096472       0.21348497      -1.45867437      -2.68551216       1.18572598
Si       6.53977257       9.37916604       3.51007049       0.58536986      -2.28778005       0.01050031
Si       6.08678042       8.95685383       1.25273580       2.64156242      -0.59863839       0.49914320
Si       7.41289806       6.34073464       4.46172958       2.58876133       3.55887574       1.58140527
Si       9.97588073       0.75171548       3.53221630      -1.55334220      -1.21845749      -3.22695257
Si       7.00402116       3.22237565       3.45236119      -2.16678483      -0.80624224      -4.34252880
Si       6.33118061       0.90400058       3.76881833       0.93027000      -2.16322080       3.38750159
Si       4.54857417       1.40938952       5.16696837      -1.82588996      -2.05331993      -1.48003867
Si       8.29697714       9.62714840       0.64864588       1.23596652      -1.41913873      -2.12555338
Si       7.12460631       4.26051007       0.14938606       2.15127277      -2.24492999       5.71121938
Si       1.77479937       3.85285290       3.96889230       0.49308173      -1.19995175      -4.75397820
Si       3.19043092       4.80708962       0.17160851       3.68755294      -0.65999745      -4.19602421
Si       0.02100914       4.44192275       0.11915063       0.71489630       7.60900828       7.78011735
Si      10.72738871       6.49723667       4.38106239      -2.71594951      -3.15505888       1.83987997
Si       1.23777437       0.05051863       4.01653989      -3.33799770       0.61424834      -1.97416173
Si       1.57207927       5.09273718       1.93524621       0.14251518      -2.05290657      -1.41444681
Si       9.06337469       2.97155820       0.49940956       1.44452970       3.69407182       4.76296515
Si       9.28660060       2.97065836       2.81742736       0.06050204      -2.70228086      -2.08412019
Si       4.22099405      10.35347096       0.85377099       2.92792833       5.12495334      -0.52511333
Si       4.97146362       3.47097146       0.92187993      -5.03271873       5.88597201       0.56639762
Si       4.50631973       1.39071311       2.14349679      -0.57691665       2.42961271      -2.22376555
Si       1.81756186       7.69905947       4.00536322       0.40167616       0.19681333      -1.92118315
Si       8.95285288       8.16358979       4.37434966       0.79339737      -0.84579751       8.64430056
Si       7.53212466       6.17336104       1.99185911       4.72664903       2.71782402      -4.43752554
Si       2.76629682       1.76423909       3.68706477       0.50287170       1.61368230      -0.84318213
Si       9.66731833       9.54115663       2.53851350      -2.85700147      -0.96072718       0.42491047
Si       3.82520567       6.37420436       4.01939308      -2.47373285      -1.02027748      -3.81872749
Si       8.35202637       0.83739673       5.19014727      -6.08576218      -4.91844071      -4.38264768
Si       9.81088565       5.30173755       2.53560025       2.25314258       0.01154201      -2.86642369
Si       5.50530954       4.99904282       2.68150608      -3.02726108      -2.11142895       5.07855377
Si       5.55778900       7.69386474       4.85070782      -1.75138225      -0.73128287       2.87522596
32
Lattice="10.953064772841406 2.0414019778866393e-15 2.391532347210215e-15 2.041341254603979e-15 10.953064772841403 9.315213603459425e-16 1.1956332070866667e-15 4.658151368277192e-16 5.476532386420701" Properties=species:S:1:pos:R:3:momenta:R:3 pbc="T T T"
Si       0.93659300       9.80196246       2.31412477       0.33142237      -3.82401263       3.37889551
Si       2.91625373       9.16057167       1.14910452      -4.82464632      -1.13456905      -1.75291259
Si       6.18932240       9.21578584       3.67861758      -2.61172358       1.26568791       2.63015331
Si       7.95136485       8.15223728       2.39437157       0.69822735      -2.36895711      -1.34900388
Si       7.31331759       6.80506282       0.47042014       1.02913437       1.75008260       3.97561864
Si      10.03429383       1.49891186       4.54014647       1.60113178       0.73826030       1.99591861
Si       6.40748437       1.76193889       3.70492281       1.61643418       3.02330734       3.08320388
Si       4.84612183       1.50543355       1.87419786      -1.33856500      -4.37188660       3.95570791
Si       2.82660060       1.67682170       5.17707454      -1.13885088       6.68532213      -5.14880602
Si       8.72894055       0.45982017       0.76446953       1.79777400      -2.89825430       1.01609580
Si      10.17597877       5.07971794       3.69605710       0.45476965      -3.13345677       3.28814974
Si       1.67039066       3.42555247       0.88996371      -2.47517893       1.77463219       2.52767841
Si       2.49229510       5.34634597       5.33585123       1.11152744      -0.04294166      -3.43162768
Si      10.39273988       3.59803939       0.07309385       4.24589058      -1.03894923       0.78731038
Si       8.86662906       6.93242146       4.20831873       1.44427453      -5.89158479      -2.77703235
Si       1.19078224       0.81849455       3.61565397      -0.74927122      -2.92644131      -0.28735753
Si       3.79976040       6.93950084       0.97270769      -1.52151865      -2.58747268      -0.51690873
Si       8.98873611       3.97284872       1.94789291      -0.07460425      -3.98158281       1.30814404
Si       8.55012409       1.81756733       2.72927928       1.85607193      -0.44247469      -4.46731098
Si       2.92105827      10.30183624       4.57322392       2.23770103      -2.00262283       0.26040558
Si       3.99288145       4.13439515       4.03352448       0.07767408       4.75363401      -4.07414067
Si       4.34676177      10.24253148       2.66300054       0.74551875       1.76028144       2.25381278
Si       1.43030129       8.28846314       3.99876517      -0.26929093       7.30000549      -2.60437986
Si      10.46341972       8.23259362       5.17548110      -2.35313018       1.55924244       1.79959015
Si       6.79484258       4.74528677       1.38213928       0.91352839       4.41287008       0.68089993
Si       2.82599686       2.48930366       2.75791353       1.11880200      -0.36503323       1.01892480
Si       9.72546574       9.44252888       1.47644715      -0.79129353      -1.12415141      -0.10913933
Si       5.07281955       5.80364258       2.77071112      -3.96161919       3.02927383       1.94044013
Si       6.57446577       0.02215374       5.28877750      -0.41629350      -2.11533356       0.32402664
Si       1.41810657       6.00407897       3.31361085       1.89381044      -0.64464926      -1.80732794
Si       5.58618924       3.13039808       0.02329018       1.84592263       1.76276193      -2.24983232
Si       5.40537505       7.24829457       4.68732977      -2.49362934       1.07901224      -5.64919636
32
Lattice="10.953064772841406 2.0414019778866393e-15 2.391532347210215e-15 2.041341254603979e-15 10.953064772841403 9.315213603459425e-16 1.1956332070866667e-15 4.658151368277192e-16 5.476532386420701" Properties=species:S:1:pos:R:3:momenta:R:3 pbc="T T T"
Si       0.94373158       9.32268577       1.01729791       0.20991889      -3.48275228      -1.69990416
Si       3.09618276       8.54211378       1.41339831      -1.10683037      -1.87971289       2.04235951
Si       6.87037361       8.93624534       4.17178865      -0.36122628      -0.35854184       4.11645356
Si       7.61489760       7.63925282       2.23493495      -3.01160942      -4.22120770       2.57289081
Si       6.05578528       6.98112341       0.58630596      -1.00077862       3.14099094      -3.53252412
Si       1.92864485       0.48085770       0.45992389      -3.64316014       0.42024082       0.66385381
Si       7.18972855       2.19531015       4.59475703      -1.69122701       3.37604210       6.61885843
Si       5.06094679       0.37270741       2.28148612       1.57681628      -9.45892151       3.43682498
Si       4.72496521       2.75129826       5.06591279       2.88801182      -4.73227540       0.09346991
Si       8.42644815       9.08363519       0.50443294      -3.28404783      -1.04212147      -3.57091029
Si      10.45372258       6.09142988       4.43726430       1.81779569       2.78211620      -0.66574305
Si       1.67949609       5.48186866       3.69389770       0.79664462      -4.92950738      -2.05888238
Si       2.90353163       4.51045185       0.01822332      -1.75224821       0.68279668      -0.02582296
Si      10.03721233       4.61325905       0.83208518      -6.40731556      -1.09031568       0.41625343
Si       8.89805829       5.65242253       2.68367556       3.78887516      -1.99506852      -0.57046008
Si       1.42069457       0.42989445       3.70189433       0.48936272       2.69959314      -6.88361170
Si       4.32430817       5.75577457       1.46655857       0.10017385       1.72921461      -2.58817419
Si       8.76523451       2.42506886       0.92260195       1.21685975      -4.82411295       5.44376069
Si       7.11048228       0.17317349       3.33763846       4.19469338      -1.57000639       4.99730912
Si       4.46991459       8.42362707       4.83017800      -1.37868708       7.02220553       1.89639607
Si       4.20043732       2.45421341       2.78528571       2.29355686      -1.78498013      -1.70470951
Si       4.26540614       0.48417735       0.09939879      -2.27923041       6.42102347       1.63991040
Si       3.44499167      10.04045655       3.30836041       2.84022745      -2.89876796       3.02949475
Si      10.40666792       8.46649368       4.84691507      -2.59006409       2.80081285      -1.72920410
Si       7.65451811       3.59767143       2.73321463       0.82355767       6.33445524       1.03424225
Si       1.95868762       2.06124860       2.16969857      -3.12410639      -1.63822059      -4.22045595
Si      10.69303084       9.96563855       2.95301632      -0.63843619      -0.46198431      -2.12702655
Si       3.38093973       7.00890487       3.19215920      -0.49005902       5.45989373      -4.23522386
Si       8.88387860       0.10181055       1.80085178       1.59825164      -0.47621447       1.09617787
Si       1.25763414       4.20998699       1.71803627       5.81902036       2.56334622       1.15087168
Si       5.63432294       3.84929780       1.58306903       3.93422941       1.03729675      -4.47136904
Si       7.08053848       4.99937702       5.28315641      -1.62896895       0.37468319      -0.16510535
32
Lattice="10.953064772841406 2.0414019778866393e-15 2.391532347210215e-15 2.041341254603979e-15 10.953064772841403 9.315213603459425e-16 1.1956332070866667e-15 4.658151368277192e-16 5.476532386420701" Properties=species:S:1:pos:R:3:momenta:R:3 pbc="T T T"
Si       1.27121036       8.39085291       2.44319546       3.78128666       4.72138988       4.14062104
Si       2.76740141       7.19895387       1.07794549       5.14329872      -0.97983181       4.69787781
Si       8.91015319       8.22463840       4.28125742       1.59864426       0.65028693       2.43625714
Si       5.77190069       9.25042006       1.21293253       0.75246039      -5.07658733      -3.97991913
Si       7.94126149       8.42546108       0.90623738      -2.60144261      -3.92150291      -2.60223918
Si       1.50429282       0.45811889       0.28219733       2.65823145       3.00717485      -2.95668819
Si       4.83418879       1.28988889       4.52310077       2.20664936      -1.78487872      -5.85299608
Si       6.10943453       0.61105610       0.87743374      -6.73886342      -3.81355441      -1.37008014
Si       4.35860759       3.46393758       5.17996715       1.88294050       0.45113911      -1.50014130
Si       9.17286230      10.39096252       1.25873290       0.10984022      -1.27728598      -1.09104720
Si       0.40860595       2.38178495       4.94557541      -3.70767817      -1.75875848       0.32352898
Si       2.81805788       4.82193852       4.06060051      -0.09211854       2.14554447      -2.69171423
Si       1.21537599       5.80371636       0.02181156       4.83579240       2.41870044       0.54298583
Si       0.13972165       3.97021570       1.22378245      -0.94820360      -1.92743783       1.06071522
Si       7.58846954       7.05166834       2.80722471       0.38198498       4.49381829       0.22613599
Si       1.33833779      10.58739584       3.20500620       0.68066438      -5.26370189       3.97633663
Si       4.10138983       5.98814704       2.50415826       4.87495479       6.00231320       5.19484580
Si       9.00625971       3.20650107       2.19685027       0.94769456       3.52122953       5.36110830
Si       9.31293800       1.73225298       4.04999649      -2.16849588       2.69932885      -0.59944181
Si       4.21977146       8.51089716       5.12229844      -0.55006527      -1.03171798       1.95617779
Si       4.85567783       1.94941073       2.29893263      -2.20613842       2.40427483       2.92456469
Si       2.55819922       1.37130238       2.15734191      -3.02340849       1.64260483      -4.18138131
Si       3.25777328      10.54682331       4.53859059       1.46443009      -3.87622804      -0.28331057
Si       9.74802436      10.45065583       3.51481149      -0.26198136      -2.56185719      -0.80602858
Si       7.38318657       4.70251722       3.02071125      -6.90080183       0.69535612       3.46706467
Si       1.48104307       3.23511675       3.02127583      -0.40377567      -1.48645064      -4.65906816
Si       0.27601506       9.41280860       0.58457591       1.91326677       3.16924813      -5.86146460
Si       5.36933760       7.84725491       3.15339675      -6.79203953      -3.58041631      -0.80742813
Si       7.95716630       2.00223410       0.45182862       4.53542882       1.35358657       2.77978819
Si       0.19898272       7.62720298       4.41176376       1.09514781      -2.00527200       0.02787497
Si       5.41665736       4.20321435       1.73820170      -1.46668239      -0.18254869      -2.54197789
Si       6.68391428       3.90025714       5.13221558      -1.00102096       1.15203416       2.66904346
32
Lattice="10.953064772841406 2.0414019778866393e-15 2.391532347210215e-15 2.041341254603979e-15 10.953064772841403 9.315213603459425e-16 1.1956332070866667e-15 4.658151368277192e-16 5.476532386420701" Properties=species:S:1:pos:R:3:momenta:R:3 pbc="T T T"
Si       0.90838060      10.08169133       3.34068357       3.90697003      -0.35513347      -1.39905780
Si       0.84423146       7.56021445       1.13230997      -1.29826666       1.72108443       6.09822364
Si       7.74729988       9.62720516       1.76203555      -1.76048964       3.50027750      -1.39112273
Si       4.55601602       8.44703134       1.98387995       1.40095108       2.13321645      -2.57093548
Si       6.63791033       7.48698753       1.39007071       2.41755880      -5.66382288      -0.78031294
Si      10.24046902       1.79195367       1.26846559       2.70286235      -2.63573888       1.81443859
Si       5.24636321       1.81644882       4.49800999       2.73259372      -3.63263182       0.74497895
Si       5.59860931      10.72038244       1.70099232      -2.47182925       5.37259284      -3.54931958
Si       3.78502976       3.00110833       0.50997683      -3.70415631      -1.59146793      -0.55962324
Si       9.49646375      10.50867322       0.39765326      -2.50424689      -4.09765631       1.42978934
Si       9.98618017       4.52010081       4.51845583      -1.17354781      -3.59940202      -0.07958990
Si       2.23648324       5.30248298       3.69595598      -2.48602602       1.67292681      -6.54491794
Si       3.77648086       5.29480464       0.02483521      -0.26371372       0.12311838       1.79187018
Si       1.50092210       2.26357022       0.23542818       5.18076363      -1.45948033      -0.38921110
Si       9.08635524       5.43158271       2.56140780       2.58118971       4.64319201      -2.38911313
Si       0.76872459       9.87050474       1.01976670       0.87325857      -5.46937963      -1.93058541
Si       2.88713810       6.61914960       1.79621049      -0.10551908       2.06541381      -1.08166292
Si       8.73405521       3.54849003       0.77566166      -3.50833635      -2.24688031      -0.52686215
Si       9.65207536       1.31431885       3.54343167       1.98734723      -0.74540631       1.72497950
Si       4.49355881      10.63736583       5.11955896      -3.62280350       2.40893547      -0.92274476
Si       5.13376267       2.06343769       2.18840356       5.78889275       4.81854936       0.83840946
Si       2.15274500       0.12008941       5.07064500       4.69130754       0.38836745      -2.26000791
Si       2.09588197       8.14339534       4.00297547       4.20475646      -2.05857679      -0.33837193
Si       9.39078800       9.76402604       3.58899298      -0.46081387       4.13249030       7.49118592
Si       6.83172749       5.81761143       3.00006583       1.98218100       0.55585969      -1.84098502
Si       0.81443639       3.22306052       3.65011140      -0.28454427      -0.36455403      -3.97940039
Si      10.18968056       7.52428417       2.86355886      -7.37066007       3.75061729       2.90702429
Si       4.42987841       8.46926240       4.28676970      -2.08488789      -0.48685204       4.70787434
Si       7.63796839       2.41422048       4.35447117      -5.32962562       1.53296573       1.65249000
Si       0.37739810       6.46635049       4.62983110      -0.50780714      -1.93655837       0.40800551
Si       6.95048977       3.54701544       2.38102516      -1.39909155      -4.74622022       3.11658712
Si       5.69484437       6.56385120       4.91231001      -0.11426724       2.27015384      -2.19203251
32
Lattice="10.953064772841406 2.0414019778866393e-15 2.391532347210215e-15 2.041341254603979e-15 10.953064772841403 9.315213603459425e-16 1.1956332070866667e-15 4.658151368277192e-16 5.476532386420701" Properties=species:S:1:pos:R:3:momenta:R:3 pbc="T T T"
Si       1.10877226       8.87639686       2.45092609      -2.62743604       0.78705807      -3.35019391
Si       1.64890766       6.88147823       1.32882622       2.59261178       0.92921796      -1.01522198
Si       7.59675515      10.28819897       2.37547018      -0.70490640      -1.19984484       1.73754059
Si       5.28627815       9.82043204       2.20960048       3.59952311       0.41141129       2.04462841
Si       8.66700186       6.68681838       1.44805219      -2.14771003      -1.02237831       1.16059077
Si      10.56743143       1.06592970       0.92518250      -0.66669166      -0.74850651      -3.78227353
Si       7.87102868       1.18014106       3.98066727      -2.97567732       3.09490673      -0.24423549
Si       5.56567536       0.65478886       3.82040642       4.50837532      -0.25148642      -2.64152536
Si       2.68372665       2.65028213       5.11692301       0.30407456      -4.49618463      -3.49046010
Si       0.55070301       9.93641502       0.38453060       1.88800839       1.57683812       7.19418300
Si      10.08901822       4.51606295       4.77342037       4.77888027       0.59869142       0.56873736
Si      10.56880175       6.64368555       0.10193940      -1.43292175      -5.91343201       3.63205355
Si       2.91125912       7.21526573       4.85024321       1.65545727       0.60953736       0.11714578
Si       0.56424775       3.15726345       0.53125418       2.13427180       5.28951108       0.11744717
Si       9.09457701       4.54059069       2.34215254      -0.75040237      -4.35844226       4.33811018
Si       2.27250447       0.98893991       3.41233074      -2.29043255      -3.42211032       1.59361052
Si       2.20651694       5.54472166       3.17446670       1.98357249      -1.41631373      -1.34426094
Si       7.31369966       3.23773355       1.37419730      -4.50439242      -1.08207562       2.84515539
Si      10.93020897       1.57607008       3.22858953       2.66105981      -0.40856481      -7.18756182
Si       4.38670514      10.71348923       0.19241615      -0.00981858       0.82613473      -1.75092448
Si       5.30319875       2.70949521       2.61001830      -1.12365048       3.98348987      -5.40615951
Si       3.60171519       1.55724715       1.47916815       1.64331493       1.48263543       0.31444803
Si       2.52194218       9.70616360       4.50458780      -3.67014241       4.07749196       1.90891325
Si       8.32509051       8.18126043       3.23778524       0.05628073       0.72828346      -0.33125337
Si       6.50553845       5.68497310       1.38963210       2.44840877       3.07004497      -0.95929249
Si       4.03162238       4.19826411       3.94289143      -2.53295371      -4.93548577       4.54459132
Si      10.44498397       8.53321708       4.19584378      -2.07842541      -0.94969048       1.13840534
Si       6.81128162       6.27695242       3.68142334      -5.62739556      -2.32375681       3.43052727
Si       8.24522427       1.02754495       0.81404120       4.27320058      -4.30863737      -1.40259923
Si       0.40657738       3.93485656       2.81108012      -3.57870239       3.42878366       0.53430692
Si       7.77761850       4.01480855       4.40787820       1.24172880       3.29806748      -1.22819383
Si       4.97680046       6.05505457       5.10800573       0.95289047       2.64480632      -3.08623885
32
Lattice="10.953064772841406 2.0414019778866393e-15 2.391532347210215e-15 2.041341254603979e-15 10.953064772841403 9.315213603459425e-16 1.1956332070866667e-15 4.658151368277192e-16 5.476532386420701" Properties=species:S:1:pos:R:3:momenta:R:3 pbc="T T T"
Si       2.02291138      10.12603381       4.55755919       0.15506024       2.22336250      -0.26374890
Si       1.74008331       8.54521324       0.78191483       1.77931045      -2.60492455       0.62389342
Si       7.27306464       9.84403975       4.70228166       5.20322824       0.75369723       0.20048031
Si       6.61153621       9.67932439       1.43334188      -0.02616865       4.22609435       3.49983084
Si       7.16527980       7.50030478       2.17125821       1.34430583      -2.19052359       5.58655075
Si      10.90718983       1.79711869       0.77581866       3.65939867      -2.51073926       1.24802550
Si       5.57376052       2.00469427       0.17089077      -2.78095921       4.36450215      -1.98504116
Si       5.82379035       2.03869426       2.50056293      -1.38884030      -0.71286592      -1.79009319
Si       3.66238655       3.33075505       5.17912486      -6.24923047      -4.03554092       0.06793058
Si      10.84248031       0.21649295       4.48755596       1.74099386      -2.90271736       2.15849101
Si       7.17420411       3.88444257       5.28354814      -5.37899740       8.95034384       1.50715355
Si      10.79076897       5.66193180       5.47223320       1.34187988      -6.16025985      -2.90423562
Si       2.18436694       6.32979348       0.20126607      -2.25440541       2.77762945      -3.11419397
Si       9.49188357       3.70584043       0.41277466       0.41562762       0.03454940      -2.38476288
Si       9.41932134       7.56174860       2.77694370       1.55388544       2.82750678       2.56417114
Si       4.12045460       0.29264177       4.43125756       0.46947035       0.79111321       1.14534792
Si       1.58888784       5.03522160       2.11695201      -2.08702091       1.61389133       1.08723219
Si       9.09751378       3.61538541       2.78667558      -0.79078565       3.73990060       4.62443261
Si       9.70187378       1.30655143       2.74460186       1.12707705      -5.05214521       0.96335013
Si       5.95133146       7.87146113       4.18523674       1.08985698       0.36403343       2.38368231
Si       2.07482298       2.82359292       1.40939592      -1.27891809       1.08328142       0.02025027
Si       4.82052954       9.57053161       2.93343144       3.16632194      -8.67276285      -1.23460704
Si       2.70465118       8.63020850       2.86347519      -0.46467347      -4.99709451      -2.26931977
Si       9.51105155       9.18132048       4.54764900       1.18542473       0.98594194      -0.99170558
Si       6.27081023       5.56581844       1.22401168       3.22576198       2.23308309      -3.99885581
Si       3.54192562       2.16141641       3.14275390      -0.57980457      -0.91783207      -3.65487977
Si      10.44310714       7.88782496       0.74423549       0.59380031      -0.53674012      -3.26741158
Si       3.05201974       6.36012219       3.43555246       0.47510556       1.95719079      -3.47251806
Si       7.48976842       0.38493840       2.84019619       0.00706847      -1.57458245      -0.79388224
Si      10.45832162       5.47249165       3.18902234      -2.57557486      -1.60519700      -0.61210745
Si       6.81701974       4.08906420       2.99019617      -2.21541190       3.58624378       5.52375382
Si       4.41442542       5.57952263       5.18876461      -0.46278672       1.96156035      -0.46721336
32
Lattice="10.953064772841406 2.0414019778866393e-15 2.391532347210215e-15 2.041341254603979e-15 10.953064772841403 9.315213603459425e-16 1.1956332070866667e-15 4.658151368277192e-16 5.476532386420701" Properties=species:S:1:pos:R:3:momenta:R:3 pbc="T T T"
Si       0.88907927       9.91070589       1.24373823      -3.58993274       7.67430770       1.37359293
Si       2.83453810       9.94640595       2.71151600      -2.44516974       1.38609528       6.43458606
Si       6.25301701       9.17080172       3.36091192       3.76015085       3.32503320       0.56801421
Si       7.87975564       8.02447025       0.17233243       0.84146203       1.88114282       7.06224172
Si       8.67704601       6.47331913       1.71451518       3.14301880       5.76307855      -0.06649790
Si       0.71504690       1.03670646       5.34558159      -4.72668695       1.26284941      -6.50630704
Si       6.16191969       1.69908957       4.37897508       0.02275078      -2.06546164      -3.23064656
Si       6.09003662       1.29923701       2.08303456       1.88318544       2.60669191       3.43352722
Si       4.22203601       1.12154583       0.06028606      -4.56489127       0.64326263      -4.10858104
Si       8.95646584      10.16084640       0.50555767       0.79479830      -3.83218644       4.61687259
Si      10.61237053       4.73843387       4.05496535      -0.75104362       1.19118170       2.11350021
Si      10.65659385       6.34460119       0.37761096       1.13022196      -2.83970634      -2.63145990
Si       4.08783537       6.70014536       0.24569825       2.95675135       2.64627628      -1.12832027
Si       0.02784990       3.24897373       0.41352360       0.41094441      -3.42300845      -0.37597453
Si       8.39184176       8.11381403       3.32684676       4.08043199       0.43190099       2.61179760
Si       2.57638730       1.18877661       3.88880972      -2.69316175      -2.03871821      -2.31403344
Si       2.91526127       5.98706866       2.28241758      -0.72646373       0.48583920       2.19549646
Si       8.72549706       3.09396698       1.16436923      -0.63796300      -1.80034628       0.44442927
Si       9.91881084       0.34135303       3.93986657      -1.55994713       0.15316655      -2.57053174
Si       5.58995624       8.51732293       0.08701420      -0.77004885       4.26523105      -4.07597329
Si       4.64135386       3.02561142       1.34978533      -3.15166941      -1.59149361       4.51864200
Si       4.87923628      10.22693410       1.55541827      -2.95405509       0.95137061      -2.87051491
Si       0.74220999       8.26917596       4.98701371       0.69579176      -0.02535467       0.12043401
Si       7.59175737      10.87947918       4.21030088      -2.08780251       1.10149147      -0.44705203
Si       8.50817023       4.50048238       3.02623532       4.17743479      -6.05820679      -4.17344168
Si       3.56274144       3.85264267       3.23803677       0.78341741      -0.49115166      -1.31894716
Si      10.49309678       9.20646149       3.15428663       8.13784506       1.42257624       2.59665070
Si       2.78314643       7.72952865       3.93732136       1.05147177      -4.57989996       1.42263014
Si       8.45085553       0.91723435       2.01975997       1.17781006      -4.13119657      -0.03609896
Si       0.83029221       4.94891323       1.97113477       0.18720320      -3.14190690      -3.45942235
Si       7.19755546       3.76198546       4.85141543      -1.61999558      -4.35322518       1.21559996
Si       4.97365217       4.57157304       5.06913872      -2.95585858       3.18036714      -1.41421230
32
Lattice="10.953064772841406 2.0414019778866393e-15 2.391532347210215e-15 2.041341254603979e-15 10.953064772841403 9.315213603459425e-16 1.1956332070866667e-15 4.658151368277192e-16 5.476532386420701" Properties=species:S:1:pos:R:3:momenta:R:3 pbc="T T T"
Si       1.31820424      10.87210781       1.81443305       0.22631518       1.32120021      -0.79933310
Si       3.71269961       8.80590951       1.13107859      -1.18503233       2.74364441       0.53717000
Si       6.28909286       9.38029410       3.93001825      -3.99946551       1.76754950       0.65479229
Si       7.85948601       7.80634032       3.08370173       5.23756303      -3.92883098      -0.32872480
Si       8.80924046       8.83032985       1.19543221      -2.07482511      -1.76544279       1.43553463
Si       1.15248077       2.17093348       1.30232735       1.60180616       2.01506832      -1.85009932
Si       8.03194602       3.30473758       4.70203928       3.80911018      -4.89457922      -1.98843029
Si       5.07605350       1.70385376       1.55792863      -2.86189037      -6.00317702      -5.52689364
Si       3.23476829       2.96955241       0.62952839      -2.28904018      -1.95017028      -1.38305195
Si       7.81600195      10.55809454       5.36808043       1.95957045       2.77983052      -6.24198862
Si       9.78325335       4.80203597       5.39490993       2.22619419      -1.10438555      -2.33309935
Si       0.60827403       4.41875591       3.80365301       2.22382462       0.21945825      -0.88914968
Si       0.35869615       8.27113783       4.23172034      -2.86483555      -1.12760603      -1.41573787
Si      10.41308646       3.63736783       1.90420937      -2.08037683       0.36116148       5.80199269
Si       9.34067728       7.24674916       5.00687137       1.11142976       5.25070793      -4.64412583
Si       2.72225765       0.22399799       3.67343624      -1.14389266       0.86156110      -3.60677384
Si       3.98665537       5.03819960       1.53240577      -1.96082504       3.39484074      -3.41829047
Si       8.73194915       2.22074695       2.72472679       0.75104320      -0.92557577       2.56631679
Si       0.63180213       0.94343371       4.85164410       2.70844821       3.45044852       5.66930821
Si       4.78488400       7.80453413       4.77247937       0.13515881      -2.59804062       4.84234192
Si       4.57513424       3.39265436       3.10657893      -5.08465467      -3.07085614      -2.90040417
Si       4.70851789      10.49832420       2.49694136       1.33393640      -2.21946884       8.25627422
Si       1.89936295       9.69973082       5.37165226       2.20896477      -2.76875395       3.73748129
Si       9.52972221       0.36394011       3.90305066      -3.16768029       3.95013557       0.75724297
Si       7.27230062       5.77046580       2.09670572       2.62151685      -0.86110595      -0.29513227
Si       2.44931267       2.72140166       3.93486501      -5.26512432       6.03320686      -0.97108504
Si      10.46453377       9.68942947       2.56249258      -4.72862102       3.87699985      -0.26509102
Si       3.53808399       7.05620074       2.75774102       6.06342175      -1.83988859       0.12903028
Si       7.32855421       1.73618663       0.87409280      -0.68496620       2.07919519      -3.56635755
Si       1.37877935       6.50640753       3.20324582       2.78193446      -1.37130103       1.54183013
Si       6.33059804       4.64607940       3.93927952      -0.83499041      -3.48145897       6.30937154
Si       5.74593892       5.91767340       0.29974539       3.22598248      -0.19436676       0.18508182
32
Lattice="10.953064772841406 2.0414019778866393e-15 2.391532347210215e-15 2.041341254603979e-15 10.953064772841403 9.315213603459425e-16 1.1956332070866667e-15 4.658151368277192e-16 5.476532386420701" Properties=species:S:1:pos:R:3:momenta:R:3 pbc="T T T"
Si       0.64793277       7.90299928       2.30481828       0.52746912       2.74779519      -1.02940705
Si       2.75786680       8.62613916       2.96655047      -3.29107414       2.95597012      -2.88259823
Si       7.01040425      10.39048562       4.02800367       2.56916711       2.35951005       1.80319663
Si       6.93861474       8.12444052       2.85862465       3.09816627      -1.09272538      -3.43420743
Si       7.23517609       6.72540997       0.86835327       0.58795654       2.75949710       1.99857248
Si       1.40362891       2.08090307       0.61494849       3.66671264       0.30088324       0.75839903
Si       4.71436510       3.70841060       4.65827721      -2.00139563       8.20626823       4.64818956
Si       6.89899680       0.99525876       2.21396846      -0.33804270      -1.62249948       0.26092391
Si       3.69351089       2.57852681       1.04131648       2.26391396       1.31080118      -6.00906895
Si       8.67391521       1.00181836       5.42198111       0.77281561      -1.55518824      -1.01040134
Si       9.46154100       5.12118921       3.97994166      -3.33149102      -1.96522498       1.43699868
Si       0.69192062       5.81465999       4.53333882      -2.71118561      -4.58918865       0.88932813
Si       0.95535507       8.01144732       5.46733781      -0.29055887       0.89403488      -1.76093576
Si       0.74015822       4.35329353       0.84627935      -0.61116052       1.44609218       0.68756652
Si       8.50421780       7.29736673       4.38773002      -4.00641679       0.97910358       0.99750652
Si       3.39255392      10.82820641       3.31276870       0.31206345       1.51841295       2.27071912
Si       3.68900333       6.63989810       1.63625115       0.05001512      -4.25678701       1.69086828
Si       9.75827059       3.85169061       2.04471956      -0.46682548       0.73339300       2.10780292
Si      10.25304939       1.50260633       1.70100311      -0.66439748      -2.50402487      -0.52976356
Si       4.81419078      10.22481753       5.07186532      -4.15122477       1.07302505      -1.41138740
Si       2.95740033       3.32961926       3.13803651       5.13348766       1.80587146      -2.92414265
Si       4.72263046       0.57460450       1.51158066       0.51319931       5.04155135      -3.41607284
Si       3.39080155       8.30435312       5.30643194       3.45493989       1.16219793      -6.40550292
Si      10.35331740       0.33470214       3.74831442      -4.06960932     -10.08316363       0.45806510
Si       7.59308778       4.43258199       1.42164647       0.36352301      -0.00453832       0.46126648
Si       1.62588058       1.34688097       3.87908598       0.22638703      -0.28314207      -1.26825320
Si      10.29758439       8.89337332       3.98220165       1.91310993      -0.61158856       3.22745582
Si       4.83969380       7.31924080       3.55772557       0.44765042      -4.53844203       6.19197309
Si       8.17956116       3.30753743       4.92650364      -3.11286498      -0.42693109      -1.58072747
Si       1.93203699       5.36535587       2.57018797       5.89169651      -1.20594387       0.96835465
Si       6.59539426       3.14765332       3.21982670      -1.66266962       0.33057801       3.31573788
Si       5.16028717       5.91907119       5.41392854      -1.08335664      -0.88559734      -0.51045603
