32
Lattice="10.953064772841406 2.0414019778866393e-15 2.391532347210215e-15 2.041341254603979e-15 10.953064772841403 9.315213603459425e-16 1.1956332070866667e-15 4.658151368277192e-16 5.476532386420701" Properties=species:S:1:pos:R:3 pbc="T T T"
Si       6.09949527       7.28779196       0.32452868
Si       0.78259528       6.95836871       4.47660723
Si       0.00139793      10.02728551       1.98817455
Si       0.95003596       6.03362344       2.33256436
Si       6.40770851       6.91871957       2.62097059
Si       1.58764866       3.84278848       1.88903017
Si       7.65198488       0.60598811       2.73941480
Si       9.95545242       1.14549081       2.58663124
Si       2.98018444       0.94715836       1.13828408
Si       6.32525127       1.76121825       4.41207992
Si       1.30934345       9.16509570       3.79466398
Si       4.63290483      10.32540185       1.31341649
Si       4.01522586       8.28746473       0.32760543
Si       7.64150664       9.05347507       5.43452327
Si       2.50281396       6.51625662       0.56874352
Si       3.64970248       4.42465571       0.65465125
Si       7.53232728       4.84243574       2.43894413
Si       6.71539177       0.18125107       0.63259695
Si       2.34932550       2.12011350       3.24163528
Si       0.33797623       1.60030084       4.46174237
Si       5.16264099       4.83643348       2.42484503
Si       5.44473378       5.26266198       4.73168757
Si       7.55837650       9.02184018       3.13631719
Si       3.57070156       8.42301386       3.47198109
Si       7.36149788       3.90949423       4.55350670
Si       9.26243745       8.49072821       1.51636258
Si       1.20501027      10.68724740       0.09794588
Si      10.18667511       6.47821717       0.74255223
Si       8.97974164       4.44812191       0.66628960
Si       5.29676068      10.06060495       3.53819819
Si      10.62070479       2.76997545       0.93713549
Si       3.96589070       2.35051068       4.93214454
32
Lattice="10.953064772841406 2.0414019778866393e-15 2.391532347210215e-15 2.041341254603979e-15 10.953064772841403 9.315213603459425e-16 1.1956332070866667e-15 4.658151368277192e-16 5.476532386420701" Properties=species:S:1:pos:R:3:momenta:R:3 pbc="T T T"
Si       6.72174194       8.12587112       5.19248312      -4.38849688      -5.67830602       2.78145461
Si       0.10833673       4.49814115       4.50824659       2.55438130       0.84015609       2.11831888
Si       0.17427514      10.05948949       2.86516257       2.18984491       2.02868180       0.63135899
Si       0.04256755       5.82243414       2.57220123       1.47470112       2.24629645      -1.89158723
Si       6.49472236       6.93538111       1.74109135       0.19886510      -1.93393171       2.45941827
Si       3.11410999       2.88899933       1.05401730       2.10925772      -0.34647683       0.32526114
Si       7.71061800       1.90102400       2.43282019       1.82269580      -4.14982778      -1.93119494
Si       0.29961456       2.40978491       3.44239147      -1.56418276       0.05865938      -0.99659498
Si       2.02413944       0.84365546       0.31401788      -5.74768009       4.07409739      -5.03158147
Si       8.21386201       1.22260666       4.60440105      -1.47991270       5.56469587      -2.86737536
Si      10.24158708       7.89819366       3.33280597       1.66300534       2.53369631       1.57836698
Si       4.34978249      10.10169304       2.77525048       4.61394657       2.20920691       0.23295924
Si       2.02592637       7.89192443       0.34167073      -0.06999113       1.38981077      -4.44157485
Si       7.58086893      10.21955787       0.31303840      -7.28424624       1.99019110       2.10108972
Si       2.24872072       6.13713271       1.87468902       0.12883082      -3.14713028      -1.34072358
Si       2.47429271       4.60654020       5.05475003       1.78021809      -4.23329124       1.06469788
Si       8.10681849       4.74139661       3.74008711      -1.68979586       5.50814143       2.32249931
Si       6.04661527       0.37819839       1.65181085      -1.28602523       0.75082391      -0.62505584
Si       2.62869683       2.85351904       3.31161935      -0.06891771       2.27039690      -5.86696395
Si      10.61829615       0.99066842       5.20925421       2.47299099      -5.00056246       4.54859389
Si       7.35178737       4.69500427       1.51920272       3.21804895      -2.18788677       6.20382473
Si       3.14444930       6.69995979       4.02525571      -2.11279806       0.71678280      -4.20495964
Si       8.06460810       7.10942635       3.56115295       4.23899051      -3.17661108       1.35948101
Si       5.07968412       7.93414916       3.47908646      -4.01508756       2.87279328      -7.95159380
Si       6.96638760       3.23551899       5.18770432      -1.55822792      -3.57958470       0.06509175
Si       9.85943608       9.96478931       0.86961164       1.51778505       4.52880265       3.30475475
Si       2.29045758       9.87382538       1.62135367      -0.40589186      -2.05676294       0.31746327
Si      10.65513407       7.88144683       0.14493159      -1.90559744       4.06034035       6.10294663
Si       9.72300518       4.67709703       0.96091994       2.71849956      -1.34492090       0.80515268
Si       3.67749886       0.91277827       4.14992841       2.31498283      -1.17940328      -2.66701001
Si       9.88079140       2.37860428       1.54197934      -2.01941615      -3.79015696       3.18500014
Si       5.07767634       1.94185736       0.20937111       0.57922294      -1.83872043      -1.69151822
32
Lattice="10.953064772841406 2.0414019778866393e-15 2.391532347210215e-15 2.041341254603979e-15 10.953064772841403 9.315213603459425e-16 1.1956332070866667e-15 4.658151368277192e-16 5.476532386420701" Properties=species:S:1:pos:R:3:momenta:R:3 pbc="T T T"
Si       5.53309811       6.24710453       0.25692266      -0.09196754      -0.23929458       4.48653974
Si       9.54442393       7.38414944       5.40492177       2.17975081      -3.77806248      -2.63215139
Si      10.79932798       0.02357246       3.78734528      -0.12373311      -2.32861765       1.63758623
Si      10.33881054       4.68966005       2.78099229      -1.81907035       0.98707723      -1.05056920
Si       6.42540976       7.48087521       2.09906659       1.42070256       0.47675774      -2.79672416
Si       3.02261577       3.65912268       1.85025876      -5.43849942      -3.24861255       1.61935616
Si       5.83031167       0.43761453       2.99024031      -2.28806545      -0.41682917      -6.83112464
Si       9.61690839       0.94297939       1.98618175       4.09955456      -6.90025151      -0.53158544
Si       3.64632195       1.31637093       2.31681631      -8.61334166      -4.82693151      -5.33875194
Si       6.05650667       0.81907558       5.34850609       5.73764297       0.12636150      -4.11354851
Si       0.99915658       8.10030925       2.35559127       2.01065995       0.20701630       3.74896455
Si       3.67504207       0.07248270       0.34915615      -0.29688568       4.81835107       1.61692500
Si       3.00367890       8.94932939       1.29139467      -3.53114474      -4.80695275      -4.41639967
Si       5.49843692       9.40331683       5.22762268       1.37650915       3.72975665       0.85550657
Si       3.41824325       7.12849963       5.34854654      -1.01765270       0.08419263       6.37505659
Si       2.06898923       5.24156960       0.17593425      -2.24141400      -3.71124231      -1.67190399
Si       8.66831079       2.97264937       2.54278594       1.43055609       3.51186297       7.87856394
Si       7.62460021      10.77339004       1.48785256       3.21158225       1.67571857      -2.66849726
Si       1.52241960       4.03084516       3.69648662      -1.76606146       3.47431881      -0.55912944
Si       1.66620241       2.26422208       5.28499119       4.99401145       2.78604931      -1.34506627
Si       5.32147667       4.46340948       1.83193451      -0.82329273       2.04277244       2.48951237
Si       6.49441812       5.69216648       3.62979421      -0.93919395       6.31221633      -0.12436938
Si      10.01813829       8.75662143       3.51866692      -3.62878309      -0.68731403       0.55443529
Si       2.81409554       8.71315553       3.71856868      -1.29847228      -2.19903048       2.92744217
Si       8.53846122       3.17879984       4.89220466      -3.11741591      -5.99272629      -1.85556762
Si       8.44665638       8.56443341       1.69913616       3.84744773       1.67948053       1.13026096
Si       2.26460621       0.20683899       3.90826451      -0.54877203      -2.41014434      -4.80942589
Si       0.21331673       6.23212261       1.19481046       4.37442836      -0.89205531       0.91404408
Si       8.74446390       5.44996185       4.34207293       1.36827405       3.92279397       3.29615457
Si       4.97408056       9.16338810       2.83531309       3.64657231       6.52991370       0.69389014
Si      10.33811451       1.67113793       5.40399277      -6.09466851       1.43888692       0.40029458
Si       6.82293066       2.84842948       0.99899899       3.98074239      -1.36546170       0.12028184
32
Lattice="10.953064772841406 2.0414019778866393e-15 2.391532347210215e-15 2.041341254603979e-15 10.953064772841403 9.315213603459425e-16 1.1956332070866667e-15 4.658151368277192e-16 5.476532386420701" Properties=species:S:1:pos:R:3:momenta:R:3 pbc="T T T"
Si       7.12440529       6.65352895       4.60477935      -2.61233682      -0.13522177       1.15059924
Si      10.87907484       7.95684701       4.28772816       3.27250267      -4.29142220      -0.33692366
Si       0.21829366       8.00677545       1.11560743      -3.56818736      -1.21596974       0.11808227
Si      10.86967704       6.22288653       2.63957185       1.46938997      -0.40401258       3.88965147
Si       5.51573929       7.41219749       3.05018939       1.18774036      -4.28812298      -3.76636643
Si       1.96548864       5.15650640       2.89531212      -2.28172379      -2.38927654       0.97228298
Si       7.69420726       1.10456814       3.22736814       5.35232305       2.49504301      -2.14773984
Si       8.98559555       0.20064381       1.45308772      -2.51278502      -0.93751550       1.94701573
Si       4.09784879       2.34517879       1.66767982      -4.67718829       1.99719885       2.28841066
Si       6.55586079       2.84625527       2.00119656      -0.67809919      -5.26801301      -0.78527532
Si       2.03184980       9.03548800       3.67915089       2.63654620      -3.39607088       6.12951663
Si       3.65572092       0.01535380       1.02608193       5.20074141      -1.41843435       2.33466705
Si       2.42598030       8.81330921       1.37439305       0.49884728      -1.88150013      -8.02623599
Si       7.49075015      10.50505694       5.00201522       4.70090565       1.76368620      -3.51751387
Si       3.49239358       6.72039109       0.53054741       0.61601044       1.87200742       1.89594693
Si       2.88752293       4.33997154       0.90865245      -2.07227198      -2.27532670      -1.58552296
Si       7.48508568       4.63761369       3.40681024      -1.80764746       6.98443399       0.82871839
Si       5.99869086      10.95150549       1.38515062       4.74688150       0.47124896      -1.54512993
Si       1.89170279       3.42568432       4.45808203       4.18991501       3.95517029       0.09024402
Si       0.08718073       1.95989981       4.04427122       0.05616251       0.58474815       3.99961843
Si       5.75983415       6.21690966       1.00341075       0.89725501      -2.50923268       0.05246321
Si       5.28682684       3.74338435       0.06154287      -1.19314532       3.73856476      -0.71993231
Si       8.58984910       8.52044225       4.23328222      -1.47662112       3.20264798      -4.77569388
Si       3.27916374       6.99040210       3.69750878      -2.05836455       0.02632836      -1.22477056
Si       8.87910012       2.92998593       4.22049455       0.84804060       2.73011491      -2.91701744
Si       9.17240549       8.91509744       1.94632303      -1.92700654       0.96566430       1.14637150
Si       3.63218680      10.81399639       4.17009030      -4.82085531       2.82975789      -1.88921199
Si       8.84088393       5.42501026       1.64960989       0.15163672      -0.82394844      -0.23511017
Si       8.83041137       3.14565123       1.06043684       0.28885351       1.21536475       1.54247011
Si       5.66349248       9.77989494       3.41698391      -3.97748639      -7.65564314       2.56611965
Si      10.77132667       1.73845981       1.39461847      -2.26011548       2.20950290       4.32205230
Si       3.89102395       2.25483745       3.99032955       1.81008273       1.84822791      -1.80178623
32
Lattice="10.953064772841406 2.0414019778866393e-15 2.391532347210215e-15 2.041341254603979e-15 10.953064772841403 9.315213603459425e-16 1.1956332070866667e-15 4.658151368277192e-16 5.476532386420701" Properties=species:S:1:pos:R:3:momenta:R:3 pbc="T T T"
Si       6.16422401       8.29981313       1.38374089      -3.89479715      -2.41997946       6.01045419
Si       1.06544540       5.72586837       4.34221207      -0.55348613      -1.10490395      -0.08390841
Si       0.26178717       9.13004634       0.71531717      -0.80737472      -1.32034516       4.23062865
Si       9.84832118       6.41190300       3.76241287       1.82614238       3.78478283       1.30492930
Si       6.35599965       6.18777767       2.33429944       3.12529666       0.50080316      -0.96039662
Si       0.60961077       3.85830061       1.55803497       3.16555571       3.40734609      -0.85699360
Si       7.46159319      10.13735488       2.02061991       1.32201453       5.18063581      -5.02413665
Si       9.86477166       1.14820725       3.01237438      -1.14844109       2.34780695      -0.84879383
Si       5.08703942       1.85240849       0.92672268       6.34636611       0.73555498       2.60048545
Si       5.39900524       2.01168325       3.21591305       0.49016354      -1.12125460      -1.89660060
Si       2.21998311       9.11521964       2.79450347       3.03879172       2.19249346      -1.40846584
Si       4.37863189       9.63037845       2.08804016      -3.67940775      -0.61447556       0.16723600
Si       4.01043739      10.86437058       0.14004942       1.96001948      -2.02497685      -1.24495866
Si       7.16608929       8.64148801       4.76705686      -0.02445407       1.26158769      -0.31499067
Si       0.85190692       6.86602382       0.86633250       0.90168726      -1.04506177      -1.26045325
Si       4.81515505       4.04563493       0.18850321      -4.40735578      -5.06709680      -1.48603657
Si       7.82085814       5.12445066       0.85637997      -2.22552878      -4.61615794      -0.75442201
Si       7.02712650       0.65740255       0.24277558       2.05225003       6.18620908      -2.67834437
Si       1.44225382       3.46306165       3.74741515      -3.47109733       0.34135785       1.06048934
Si       0.66718040       1.38802208       4.55667174       2.29092328      -4.91186786      -0.31706175
Si       4.20109766       5.31975514       2.11266509       2.09896842      -0.05602380       5.39641609
Si       7.57861229       6.29790304       4.31100455       2.73729720       6.95179873       0.85173994
Si       9.58024700       8.66595219       4.43330014      -3.79981554       0.51209001      -1.73530543
Si       2.35743459       6.75875835       2.64994949       4.70348760      -0.78125574      -2.01714690
Si       6.92753745       3.84600572       4.50751632      -2.18794893       0.53290312      -0.39431602
Si       9.72984145       9.86146290       2.44357401      -2.67805660      -2.77782889      -3.11219029
Si       1.84157410      10.33418650       4.82341652      -4.00602591      -1.30913668      -2.11644344
Si       9.98481838       5.60027622       1.60249230       1.26108316       0.95702189      -4.07766112
Si       8.55035102       2.14046937       4.76169675      -1.14475079      -3.34841964       2.21144700
Si       5.71528924      10.64291694       3.87698267      -2.21789298      -1.10613563       0.00934666
Si      10.26244278       2.08385737       0.89207307      -1.34196282      -1.20749454       3.19896359
Si       3.74984257       3.62583920       3.66826040       0.26834932      -0.05997679       5.54648984
32
Lattice="10.953064772841406 2.0414019778866393e-15 2.391532347210215e-15 2.041341254603979e-15 10.953064772841403 9.315213603459425e-16 1.1956332070866667e-15 4.658151368277192e-16 5.476532386420701" Properties=species:S:1:pos:R:3:momenta:R:3 pbc="T T T"
Si       6.76525372       7.03726032       5.10092343       3.50169229      -1.01911303      -1.10210699
Si       1.76616620       4.07942002       4.26232023      -0.13011299      -6.48838749       1.20592749
Si      10.25718445      10.27840931       4.92877620      -0.07678511      -1.28414787      -1.32899888
Si       1.00568394       5.33025609       0.66375434       1.17631183       4.40348273       1.47417436
Si       7.33299859       7.98145261       3.04701845      -5.50153621      -0.77004323      -2.03682808
Si       2.30061453       3.86388357       1.96801264       1.43754868       1.48969099      -0.53083849
Si       7.68939359       0.53435725       1.76390418       0.63679463      -1.79643406       4.53111425
Si      10.48927071       1.50165983       2.64035630      -2.03666480       1.54748124      -1.30376479
Si       2.76071923       0.66082171       1.09204030      -1.31641097      -0.61310504      -6.87097924
Si       5.19634538       1.48326221       4.23555590      -1.17047513      -1.68141226       2.34125257
Si       2.78333203       8.53936243       4.94539011       1.38817458      -1.60518437       1.21506514
Si       4.74269774       0.09630384       2.25029906      -1.23556423       0.45178859       1.01152300
Si       5.10654731       8.67659643       0.11987227       0.14335623       5.48816092       6.54541761
Si       8.49396723       6.93822805       1.24823002       2.95074541       1.66877385       0.31426629
Si       1.43263659       7.59651783       1.17120956      -5.07761292      -2.81051892      -0.05973222
Si       4.67889084       3.97741692       1.39143678       2.47838613      -4.84677677      -0.06787924
Si       6.34144424       2.45957039       2.27953376       4.23885775      -4.22935323       1.65426911
Si       6.01770594      10.83336807       0.24853263      -2.95986932      -0.37014771       7.64232551
Si       1.80393792       1.29081443       3.08932549       5.54916797      -0.20226062       2.20146984
Si      10.39935328       3.72451235       3.34167024       2.20151247       3.38466800       0.17100368
Si       3.74464751       5.28419451       3.30337883      -0.86158259       2.39990553       0.53282894
Si       5.47208764       5.08157863       4.92497981      -4.45389841      -2.18265337      -3.01898493
Si       8.95447233       9.77176196       2.98337693      -2.99210879       4.40911716      -3.88088056
Si       3.08602464       7.50330903       2.89264044       3.11981453      -0.56761502      -7.39224395
Si       6.81500599       3.27564687       4.38644258      -4.53111273      -1.27259536      -1.51277222
Si      10.17792676       8.65859549       1.20240686       4.33747424       3.36057510      -2.78127102
Si       1.65796009      10.58281553       4.76064097       3.94029287       0.21760564      -0.60765529
Si       9.72192990       4.89280382       1.36009499      -3.39011234      -0.76707218       2.27408070
Si       8.99544750       3.36589435       5.17284214       2.91419600       2.79257159       4.09360960
Si       5.09695674       8.70675318       2.45092305      -2.29349193      -2.89906652       0.59450494
Si       9.52593874       1.26273811       0.53270431       0.23118333       4.38287990      -4.68548588
Si       3.33703219       2.56110359       5.32024637      -2.21817047      -0.59081417      -0.62241125
32
Lattice="10.953064772841406 2.0414019778866393e-15 2.391532347210215e-15 2.041341254603979e-15 10.953064772841403 9.315213603459425e-16 1.1956332070866667e-15 4.658151368277192e-16 5.476532386420701" Properties=species:S:1:pos:R:3:momenta:R:3 pbc="T T T"
Si       5.92216610       8.25737652       0.18897955      -4.99550119      -3.28414690       2.56861295
Si       0.43180638       6.39565129       1.22979780      -3.71459392      -1.88933584      -4.09369200
Si       9.31780484      10.90466714       4.26856236      -4.25584032      -1.01951888       6.16494728
Si       0.57420238       4.17384701       1.88758255       3.31419988       1.27743796      -1.97805369
Si       8.28218992       5.51265646       3.12098880       0.85302911       0.82465560       4.18087212
Si       2.63410472       3.79493158       2.96246457       4.05929067      -1.82195356      -5.84457793
Si       6.64802726       0.87607869       2.33036883      -1.97866817       5.01572871      -1.75600370
Si       8.86329147       1.68892762       2.65130367       1.27398683       3.67430242      -0.47705993
Si       2.84258905       0.34959413       1.70443860      -0.88113388      -4.49925081       0.36677751
Si       5.07749287       0.96421332       4.24421737      -1.37029453      -2.67695784       0.71716230
Si       1.29748025       8.44401776       3.70775964       0.19617037       0.22227787       4.34836020
Si       6.71621686       9.50465788       2.07506825      -0.18103956       2.61459258       1.64172835
Si       3.93197609       7.35380962       1.14873591       0.21077442       0.68886169      -4.46947972
Si       7.91538961       7.20149836       4.77382128       1.54328728       2.12214067      -0.68155134
Si       2.12842062       6.76511448       5.18899194       1.57121200      -1.33157981      -1.44886435
Si       2.77386611       4.48748513       5.16891182      -3.00853495      -1.94881282       4.45415883
Si       6.36254750       4.25386203       2.73200946       4.52696427       4.19551377      -0.10263644
Si       8.62067688       1.72622731       0.26005313      -6.60963158       1.94698125      -3.29815690
Si       2.86086585       1.56626955       3.66382469       1.09149049      -1.39033483      -0.18670384
Si       1.38032595       0.97723437       5.44364769       2.98556311      -1.90593917      -1.57519880
Si       4.32777308       5.30902839       2.34013064      -6.06258769      -3.03861036       0.87966567
Si       4.95729193       3.71065169       0.63097159       0.63328326      -2.15550996       4.49953576
Si       8.65286621       8.89213314       3.23247074      -1.04872240       2.53497960       1.75218016
Si       3.24807779       9.11693018       2.59998657       7.72155382       0.91258026       3.33419237
Si       6.63308357       2.82493118       4.61074093      -1.72792551       2.66715289       0.41702502
Si      10.64777595       8.57382365       1.90524178      -0.42720880       0.80000195      -2.67552731
Si       0.23038024       9.88195126       5.30351523      -1.93749335       1.40292488      -0.36435410
Si       9.10404174       6.77343943       1.25373465       3.01679255      -1.30468879      -1.50073104
Si       9.85528272       3.72393588       3.48469335       2.05661799      -4.39468526      -2.26197013
Si       5.17752822       9.58205939       3.86672612      -1.09118873      -0.46700073      -0.48224381
Si      10.76554013       2.82746529       0.05367820       1.46875905       3.78624148       1.83130683
Si       4.81542643       1.41619902       1.04542146       2.76738948      -1.55804804      -3.95972031
32
Lattice="10.953064772841406 2.0414019778866393e-15 2.391532347210215e-15 2.041341254603979e-15 10.953064772841403 9.315213603459425e-16 1.1956332070866667e-15 4.658151368277192e-16 5.476532386420701" Properties=species:S:1:pos:R:3:momenta:R:3 pbc="T T T"
Si       5.46566579       7.64874346       4.37621923      -2.67609448       3.93646817      -4.88738457
Si      10.59974543       6.67214466       4.53581018       2.55146359       1.80779487       2.79754673
Si       9.82742318       8.68061807       5.42160812       2.11518861       4.09514679      -4.07983916
Si       2.07976787       5.72504767       1.35694329       1.58583510       1.41536021      -0.15548622
Si       6.75535896       5.67798478       3.91686836      -0.35214671      -1.00656897       0.08630502
Si       2.83054595       4.45367703       3.20672177      -0.27447964      -2.69463225       4.19536814
Si       6.17807900       2.52328035       1.54938388       2.30188923      -4.66023641      -8.49106335
Si       9.82891009       0.46932909       2.18274220      -4.77790982       3.42538041       1.61248332
Si       2.63288559      10.42982680       0.85920879      -2.20205852       1.81144935      -1.97567005
Si       7.07244710       0.30424362       4.45039379      -0.64554019      -2.42902408      -4.76955639
Si       1.00303199       7.36251079       2.71646137       2.02344457      -2.05503694      -6.71970957
Si       4.78759013       0.58525736       1.59015888      -2.03707768       3.61853298      -1.07289456
Si       4.98231078       7.84622575       2.03399476       1.25956420      -1.86930864       2.22676593
Si       7.49360094       8.95995422       4.90298922       4.71750446      -3.04017839       2.84280546
Si       3.12514004       6.32946469       4.70944308       0.26088285       4.00994941      -0.10921777
Si       4.64743743       5.73158031       1.01883424       2.91700531      -3.82555396      -1.14212261
Si       8.89239131       5.98373888       3.03378044      -3.95960253      -0.50617257       0.97850373
Si       6.33926851       9.71814104       1.35745626       1.57100463      -1.15451418       0.31921771
Si       0.70988367       3.42247295       3.81976675      -2.81664535      -1.43595967       1.73263827
Si      10.75492825       1.26105742       4.17529022      -2.84995650       3.54330965       3.88139236
Si       5.16086208       4.02616889       3.04318263       3.03647248       4.22085785       5.22770114
Si       5.82685420       4.05538872       5.31435717      -4.91014151      -1.82119724       4.49708425
Si       8.19410523       9.83600653       2.76971330      -2.33671041       0.32073178      -0.08427048
Si       2.83375875       8.79580623       2.50831459       2.19240220      -2.37595376       1.04759042
Si       8.57783582       2.09371893       4.72726357       0.67534929      -2.29010362      -2.11624584
Si       9.66345504       8.01212163       2.14305274      -2.86561758       0.53476579       1.76338746
Si       0.26180760      10.67612487       0.39755495       6.01931743       2.50449676      -3.77030794
Si       0.28041277       4.75043043       0.25141987       0.63346294      -4.11030219       4.41439973
Si      10.00848920       4.11668317       2.15260970      -1.72045157      -0.10222576       0.38865316
Si       3.78862237       9.57184146       4.48222014       1.25942710       3.60002690      -3.24091731
Si       8.55361746       2.36008069       1.58580548      -4.89078637      -0.61106234       1.65286243
Si       4.79334099       0.70406305       3.96580261       4.19500487      -2.85623993       2.94998055
32
Lattice="10.953064772841406 2.0414019778866393e-15 2.391532347210215e-15 2.041341254603979e-15 10.953064772841403 9.315213603459425e-16 1.1956332070866667e-15 4.658151368277192e-16 5.476532386420701" Properties=species:S:1:pos:R:3:momenta:R:3 pbc="T T T"
Si       5.24616455       7.67749500       0.74866356      -1.05892244      -3.29687838       2.18987609
Si      10.77047041       7.69687504       4.61625688       8.89661067       6.10274954      -2.27037220
Si      10.75280673       9.13877917       0.99907207      -0.41870662      -2.15385646       2.54742128
Si       0.67913220       4.51615806       2.05681856       2.23276723       0.32894263       2.95925162
Si       7.07512448       6.87383114       4.98708951       4.02054114       0.61212356       1.63845877
Si       2.58606271       3.33312417       1.33925754       1.28990350      -0.49469048      -2.48978947
Si       7.00322105       2.34030879       2.00935970      -1.66721452       2.35789608      -3.67906565
Si       8.78217271       0.75840750       2.53548230       0.23310716      -1.94038184       0.53849844
Si       1.74750594       1.21801497       0.94787797       1.12546615       0.77317017      -0.95806725
Si       7.09979387       2.51762001       5.18365037       2.80025148       4.53648881       2.10791411
Si       2.00483531       9.01622946       1.84588496       3.40314090       1.00208446      -2.59265203
Si       5.17616999       0.60473618       2.37274733      -2.83417593      -1.90713406     -10.89923551
Si       3.35885999       8.78558238       5.43686789       0.87581213      -2.56943541       4.63823214
Si       7.25146277      10.28742329       5.43893088      -2.03614129      -0.00130206       1.28929908
Si       1.70584529       5.55379539       3.91279332       0.02239834       2.54104583      -2.96176057
Si       3.45392798       4.39132567       4.87196440       0.52681523       1.64646664       0.10558110
Si       8.00550816       4.44345897       2.70229783       0.47624310       0.63422975       0.53599350
Si       5.55750713       0.80226477       4.70820082      -4.55437345      -1.39348565       3.81297628
Si       2.85369590       0.10535705       2.63671749      -0.82531055       0.29051377       0.96768733
Si       9.33151814       1.81635344       4.54252001       1.14477781      -6.38675880       2.40698661
Si       4.58877613       3.79101203       2.77901101       3.38375020      -1.36963579       0.49472275
Si       4.97757725       5.35136852       0.95144336       4.38121313      -1.53262187       5.55107828
Si       7.95163305       9.59357288       3.32024417      -0.30944915       1.93017625      -0.37804335
Si       2.03148048       7.80761284       3.81270647       0.82299591      -3.71554278      -2.18415144
Si       6.37169383       4.63598874       4.41409020      -1.01919676       1.13505781      -3.18796619
Si       9.48440202       8.00286617       2.64160553       0.62124958       3.72756697       2.06309165
Si      10.38774128       0.54840120       0.78883032      -7.06890011      -0.67499457      -2.22121313
Si      10.58582027       5.45857162       0.08235191      -2.60375739       4.16367124       4.91411492
Si       8.60726885       6.23080452       1.26921533       1.68080272      -3.10732086      -3.47183273
Si       6.15869018       9.47645507       1.88998498      -6.50433698      -1.92289867       5.28038327
Si      10.04126420       3.94193354       3.78095023      -7.35230466      -0.84861880      -7.87510419
Si       3.27450544       0.16187639       4.93248464       0.31494347       1.53337298       1.12768647
32
Lattice="10.953064772841406 2.0414019778866393e-15 2.391532347210215e-15 2.041341254603979e-15 10.953064772841403 9.315213603459425e-16 1.1956332070866667e-15 4.658151368277192e-16 5.476532386420701" Properties=species:S:1:pos:R:3:momenta:R:3 pbc="T T T"
Si       4.51903107       7.21890176       3.72840785       2.74573347      -5.00839004      -0.80927458
Si       0.09781152       6.88634060       5.11122331       2.58437285       2.76042192       0.97337571
Si       9.71858925       0.04895256       1.50575519      -3.82221314       0.92578658      -2.87364009
Si       1.52027178       6.21136530       1.42669417      -2.40179032      -0.21329852      -3.58322097
Si       6.55395399       6.41177219       2.95649148      -5.19182522       2.56810996      -0.04578655
Si       0.66650054       5.28393058       3.46001643      -1.58715522      -1.13882486      -1.06874222
Si       7.56561291       1.26123202       3.75225410      -1.29632524       4.81327835       0.30493988
Si       9.85645184       1.76660919       3.20574582       1.49400734       1.56023369      -2.50805358
Si       2.57544015       2.43073889       0.92224378       2.26646419      -1.29026800       0.49471756
Si       6.51100641       3.02928911       4.82619221       4.77110035       1.87168292       7.21823492
Si       0.42096886       9.03280502       4.19402974      -5.70325378       2.60149592      -1.27935562
Si       5.82664806       0.38329891       2.30379608       6.08604577      -2.70153964      -1.08314925
Si       4.39413060       8.96757731       5.29403507      -1.12301911      -1.54266749       0.34412170
Si       8.23870073      10.50845386       5.13300458      -4.62758349      -6.55999416      -0.52359574
Si       3.24653082       7.79324535       1.74995684       2.38571839      -0.37706392      -6.69803841
Si       2.09859188       4.51846304       5.38618308      -4.36274887      -4.29661595       0.72058447
Si       5.69216927       4.79310092       1.43071897      -1.12904951      -4.23195722      -1.31276983
Si       6.44826456       9.58647766       0.83157787      -1.03551637       4.80894979      -0.13573636
Si       2.85680138       1.96382996       3.28608598       2.37797485       0.54377659      -0.97446484
Si       0.99716553       1.56212291       4.74147437       1.31489813      -2.05278944       5.94609313
Si       4.74139324       3.54348805       3.32909289       5.29228541      -3.27818769       3.89127429
Si       4.25967545       5.22831063       4.94791505       3.67621099      -0.04188748       0.00982971
Si       9.23733667       9.40952664       3.22583778      -2.11158847       3.50681594      -0.18553767
Si       2.00381676       9.61347874       2.47249563      -3.53265547       3.02499621      -0.86925757
Si       7.93142683       4.95090384       4.20161589       6.04892999      -2.86909199       2.03814484
Si       7.85707298       7.98468908       1.85745963      -5.30103547      -2.69091620      -3.78115940
Si       0.83385243      10.49240184       0.53108350       2.14727359       4.10607096      -1.60454789
Si       8.83688901       6.50052702       0.30335912       0.72783671       3.00647372      -3.72242547
Si       8.06482828       4.35890373       1.04973491       4.05196936      -3.61710843       2.51413949
Si       3.81968060      10.73827250       3.53001282      -0.46120309       1.18504547      -0.78960083
Si       9.65479121       4.07665786       2.81919281      -1.16675109       5.74567840       4.98924259
Si       4.99803936       2.22806645       1.04168458      -3.11710750      -1.11821542       4.40365861
32
Lattice="10.953064772841406 2.0414019778866393e-15 2.391532347210215e-15 2.041341254603979e-15 10.953064772841403 9.315213603459425e-16 1.1956332070866667e-15 4.658151368277192e-16 5.476532386420701" Properties=species:S:1:pos:R:3:momenta:R:3 pbc="T T T"
Si       5.52487367       8.62593792       0.09960854      -3.68295240       0.50783031      -4.80645801
Si      10.87802439       6.49415969       3.98974885      -0.47868536      -0.07154230       5.45320998
Si      10.55409714       8.45033822       2.34665643      -1.83820529       3.24949024       2.10245499
Si       2.25383957       6.19073700       3.29114002      -2.19062857       0.15287437       1.42769113
Si       6.92194616       6.80439947       2.64318451       2.04693221      -5.36549721      -3.41493559
Si       0.66022203       3.52777818       1.42014655      -6.30553112       0.39427680      -4.27301226
Si       7.94989727       0.25514814       2.15041408      -1.83433828       4.35550285       3.38952744
Si       9.12642165       1.86181193       3.64104742      -3.17133589      -1.44252878      -1.11536266
Si       4.19657363       0.70586381       0.92092959       3.48539871      -1.91163607       2.70795797
Si       5.76349324       1.25669080       4.59237987       2.77925271       1.82269386      -1.94518716
Si       1.15420089      10.29226031       2.50763736      -1.58583646      -1.83123175      -0.45142823
Si       5.64533054      10.89148335       2.63255828       3.42644435       0.36370715       1.23001831
Si       3.09382978       8.50329342       0.45728043      -0.78457085       1.36751909       4.51347430
Si       8.18831887       9.16379877       5.01274567       5.28303331       1.99370337      -0.88021834
Si       3.12596727       6.11993071       0.90067831      -3.45873821       4.28599994      -1.63813593
Si       2.63644717       3.90413063       0.24795554       0.78466890       0.85193583      -2.95114776
Si       8.00734642       3.45345351       2.19945910      -0.74243827      -1.35924936      -4.56981471
Si       7.95087432       0.54907121       5.28941829       2.04822675       1.11534284      -1.20772921
Si       2.12466872       3.29410244       3.49885743       0.63358791       5.44224368       3.58867548
Si       0.45987392       1.66311418       2.91486137      -1.18048359      -4.92415012      -3.04678075
Si       5.81768135       3.29467263       3.26040958       2.22994640      -0.70304095      -1.56587689
Si       5.53359442       6.34966941       0.75215385       0.18656260       4.81324654       4.92298108
Si       8.28577402       8.90655576       2.68090379       0.14228660      -2.78224412      -2.15123094
Si       2.89345457       8.55479418       2.91543152      -1.43111384       1.35807754       4.18962971
Si       6.57684286       5.20070727       4.44982290      -2.73625024       4.98419803       0.78069034
Si      10.46392037       8.40958033       5.44078330      -1.82667474       0.00942061      -0.42076232
Si       1.32127142      10.04350513       5.46152213       2.07848048      -4.26905685      -0.52957756
Si       9.14201944       5.62731868       2.46019102       5.09559853      -3.92237902       1.99194004
Si       8.38167482       3.79819722       5.28060580       2.33358729      -3.67345567      -1.87012974
Si       5.24258680       8.66115384       3.24373633      -1.17395970      -0.42872173       1.49909770
Si      10.21915189       5.12066412       0.40917976       1.71913302      -4.72914701      -0.15473885
Si       3.85535492       2.80941126       1.96739155       0.14860304       0.34581789      -0.80482155
32
Lattice="10.953064772841406 2.0414019778866393e-15 2.391532347210215e-15 2.041341254603979e-15 10.953064772841403 9.315213603459425e-16 1.1956332070866667e-15 4.658151368277192e-16 5.476532386420701" Properties=species:S:1:pos:R:3:momenta:R:3 pbc="T T T"
Si       6.62525991       6.69820204       4.56751988      -1.03693462       1.10751329       3.47794071
Si       0.07981877       6.25337912       3.42627624       6.52157372      -3.52844863       5.79174229
Si       1.49562103       9.38371026       1.71986394      -1.62146770       1.82515516      -4.40872735
Si       2.49769274       6.08146991       3.31212404       3.55975497       1.91656490      -4.24664466
Si       7.52820534       6.53900118       1.47020639       2.17805083       1.60099934      -6.83895110
Si       0.56622206       3.18342790       0.31539626       0.38531615       0.73202445      -0.07598920
Si       8.46773493       1.47779307       1.15869733       5.65374034      -4.10843431      -0.76231339
Si       9.11897229       0.50050016       4.63996608       0.99014109       0.72857849       2.09871486
Si       4.40447893       1.27901284       1.37072374      -0.02364787       1.61698799      -1.10199689
Si       6.91046048       0.70832217       3.87358277       6.60752681      -6.48990501       0.86927183
Si      10.53214610       8.45956871       2.85702653      -3.67403082      -1.10252487      -0.55034665
Si       3.23382176      10.68630885       2.63557910      -4.12080086      -0.94324769       6.33654521
Si       3.40367342       7.95027967       1.36877070       1.45905027       0.44153964      -1.56344107
Si       9.95862133       9.32060457       4.93252218       0.83005454       7.63472729      -2.71753028
Si       2.44982647       5.88216033       0.92864567      -2.95808930       1.28628809       1.07386790
Si       3.86241071       4.32505010       5.38345449      -8.70440394       5.92942077      -2.82375678
Si       7.38225803       3.56379448       0.78845001      -1.33826384       4.93184879      -3.16749024
Si       5.71964003      10.66037380       0.17592516       3.74612888      -4.54836405      -4.94241061
Si       1.81867743       0.79116599       4.07425996      -3.60908554       5.12495186       4.73114928
Si      10.76885966       1.95996209       3.95088899      -0.59273624       1.67423814       2.07960797
Si       5.21763902       3.54621239       1.71035110       1.01458188      -1.51304793       7.30970084
Si       5.46415275       4.74694443       3.74938153      -0.62761670       0.58792082      -2.67280690
Si       7.32294241      10.52580890       1.86838248       0.59044999       0.65228128      -1.76308104
Si       3.24691453       8.42427600       3.73072575       2.32307357      -2.54600483      -2.26946798
Si       7.23594332       3.13960185       3.94255365      -4.74275814      -1.19156298       0.29622188
Si       8.71173532       8.63942200       1.38607280       1.90350908      -4.28867055       1.62659829
Si       1.39481881       9.58602204       4.89927888       3.43695007      -0.35864221      -6.11692016
Si       0.24255921       5.50013653       0.15422043      -0.35284448      -3.33634045       5.24489510
Si       9.55122196       5.28776600       1.83898783      -1.98629323      -0.63711727      -0.36186048
Si       5.05015345       8.41733241       5.22271792       2.13634138      -1.44970033       1.62443897
Si       9.99305176       2.98160002       2.05986759      -0.72542053       2.27366587       2.58736159
Si       2.74097477       2.28452371       0.08988733      -7.22184977      -4.02269506       1.23567805
32
Lattice="10.953064772841406 2.0414019778866393e-15 2.391532347210215e-15 2.041341254603979e-15 10.953064772841403 9.315213603459425e-16 1.1956332070866667e-15 4.658151368277192e-16 5.476532386420701" Properties=species:S:1:pos:R:3:momenta:R:3 pbc="T T T"
Si       6.14867763       7.77668771       4.83938976       3.52897509       3.15209862       0.40144078
Si       2.11436708       6.02737881       3.23394066       0.62375624      -0.37712490      -4.17519696
Si       0.48107898       0.95729494       2.00402770       0.04811643       3.78632731      -1.64908510
Si       0.51566785       6.49832945       1.54114344       1.73962012      -7.56001590      -2.96130500
Si       8.03639268       6.48316503       3.93678148      -2.90769029      -4.21606397      -0.78494625
Si       1.51266555       2.96629480       1.40655438      -4.69260819      -2.70283781       6.28397778
Si       7.30705434       1.49236505       1.63965659      -2.30921711       4.16761151       0.81030751
Si       9.44931307       0.69880706       0.84892514      -1.42082886       1.00063882      -0.28668381
Si       2.36047791      10.66385912       1.29506523       3.41115046       2.04136324      -0.36116384
Si       7.59299034       0.27767298       3.58475697       1.73542231      -0.49594386      -2.20672253
Si      10.35662598       9.40703889       4.41896043       1.26096457       0.00898273       1.88458556
Si       3.83920456       0.67725825       5.11911873      -2.90521718       0.74771670      -1.37604831
Si       4.38368022       6.46441290       0.30385615       3.52149008       2.63392626       0.70274166
Si       6.62853800       9.25986696       1.08269635       1.78964242       1.54479613      -0.80271357
Si       2.10335775       7.01618951       5.33177566      -2.83893278      -1.91174282      -0.76468567
Si       5.14813535       4.26614292       5.41811234      -0.98240445       3.67061199      -8.18359590
Si       6.77251743       3.74351865       1.62566593       1.03948331      -3.55285744      -2.70959706
Si       6.13716599       0.33269766       5.47318926      -5.59010060      -1.71016393      -0.35418293
Si       1.73241516       3.76171271       3.55220357       1.73777297      -0.48332451       0.07540540
Si       9.87129537       0.86675851       3.98645248      -0.28325067      -4.21859378       2.33821436
Si       4.36742787       6.51537025       2.60046899      -3.38611870      -4.70515970      -1.78308064
Si       6.05330739       5.04601479       3.41695239       0.58205995      -2.91371464      -3.82598565
Si       9.71556417       7.85707775       2.66671200      -3.15944281      -0.48957128       1.05146535
Si       3.29289003      10.09065086       3.37884576       4.86664892       5.42427292       8.45799175
Si      10.34513695       3.39290516       4.04101225      -5.09209382       1.82716455       1.51211940
Si       9.00716723       9.32468414       0.96560952      -1.16334405      -5.65579914      -3.62323559
Si       1.70960727       9.25784651       4.96579315       4.30179210      -0.88191614       2.33780726
Si       9.09223257       6.17011167       0.57311778       3.23807040       6.16975612       4.53997164
Si       8.87680786       4.56855736       2.41702548      -1.53144931       3.58487837       1.16917861
Si       5.17222429       8.71507706       2.93826420       2.41546885      -1.66020377      -1.22383436
Si      10.63010863       4.32636069       0.75522356       2.75888347       3.47881816       4.64346061
Si       3.19547804       2.92856060       5.19407419      -0.33661886       0.29607016       0.86339549
32
Lattice="10.953064772841406 2.0414019778866393e-15 2.391532347210215e-15 2.041341254603979e-15 10.953064772841403 9.315213603459425e-16 1.1956332070866667e-15 4.658151368277192e-16 5.476532386420701" Properties=species:S:1:pos:R:3:momenta:R:3 pbc="T T T"
Si       6.82804077       8.03665450       0.02946609      -2.91817827      -1.11717331       1.02012053
Si      10.49272328       7.37070344       4.05722120       1.96371623      -0.60656462       4.33791355
Si       0.87522470      10.91932866       1.23396226       1.62274809       0.98688294       4.55234408
Si       0.04498754       5.27304604       3.00248806       1.08022651       0.04363296       1.26077815
Si       8.10275396       6.89834514       1.62357654      -3.31702219      -7.00589535       0.89713630
Si       1.78525243       5.30937959       1.44531726      -0.20662949       2.16110659       0.47156080
Si       7.79449334       0.68435393       1.67479482      -7.10368362      -3.79068649       4.32934723
Si      10.45191244       0.93048064       2.99077357      -2.92695176      -3.21023468      -2.10057728
Si       2.81677465       0.38404253       2.54432262       1.69524365      -3.40928706      -1.07445446
Si       5.67812267       2.66925779       3.92290729       4.95762471       1.85505072      -0.82508289
Si       1.45726817       8.83315540       4.07511242       3.27724891      -2.82900428      -1.58246818
Si       4.73103916      10.04091709       2.74526181       3.15826498      -0.79274834      -1.73212242
Si       4.78862220       6.87169875       5.09356225       5.45787190      -0.52586954      -2.45323333
Si       8.42323339      10.64267049       3.69991544      -0.17290676      -0.51061088       3.00464413
Si       3.08802885       7.23571116       1.27155136      -0.98670933       1.27001014      -1.14631844
Si       3.44052663       3.70221985       0.98414050      -1.03169194       0.78469471      -0.97872802
Si       7.52084078       4.62672500       0.92997208      -3.42649962       1.51371982       3.38119945
Si       6.16931094      10.15361094       0.87116296       3.42546281       2.88121392      -5.56061342
Si       3.57523861       2.53863335       2.93872367       1.64800687      -0.17737605      -2.29523933
Si       9.51634753       0.96416389       0.12195709       3.86412698       3.95318809       7.29734551
Si       7.42115459       2.89505304       2.43874750      -0.31735817       0.48727666      -5.67764482
Si       5.39456649       4.53185351       5.38367043      -2.17455699      -2.60737860      -1.19467368
Si       8.33801647       8.24833667       3.63687400      -2.27638577       1.32122585       4.91594211
Si       3.64069545       8.04076933       3.38330694      -2.46422967       0.56974618      -4.97367075
Si       9.65413507       3.22679356       3.04750449       3.17667728       1.68458547       1.32244336
Si       1.15444199       8.58141941       0.96345479       1.37548503       0.48395051      -0.95516519
Si       1.32086736       0.45900653       4.44361168      -0.71573495       3.71480399       0.91157211
Si      10.36318321       6.96628654       0.91324771      -0.47870682      -1.18327890       0.04854637
Si       9.39288512       3.38855766       5.40697961      -8.11375305       2.61285162      -1.63993096
Si       6.05890236       0.30109490       4.30106844      -2.71289091      -4.28122614       0.24181734
Si       0.55150272       4.40651438       5.12865778      -0.32252454       2.16471581      -4.43558139
Si       2.12541588       2.69988507       4.77552650       4.96370991       3.55867825       0.63279354
32
Lattice="10.953064772841406 2.0414019778866393e-15 2.391532347210215e-15 2.041341254603979e-15 10.953064772841403 9.315213603459425e-16 1.1956332070866667e-15 4.658151368277192e-16 5.476532386420701" Properties=species:S:1:pos:R:3:momenta:R:3 pbc="T T T"
Si       5.37735179       8.41283616       0.48173110       3.15048216      -3.54519536      -7.13590393
Si       0.31963684       7.95928881       2.69742567       3.39262126      -0.00690486       4.92826334
Si       0.83517182       0.63027948       1.61616617      -2.41139008       2.70727367       0.93545651
Si      10.33309498       5.76017832       2.52110574      -1.40317713      -2.26050443       1.48828870
Si       6.84887141       7.72140016       2.15995015      -0.33801821       1.48358568      -6.58289447
Si       0.51264529       4.38110278       1.04986072      -2.03857526       1.92386497       4.39377789
Si       7.86311289       0.21668108       1.51642811       3.06752500      -4.94020881       2.89037772
Si       9.35280198       2.29696082       4.10449133      -2.55636939      -7.52792038       0.22137395
Si       2.91303193       1.67936330       1.39046476      -5.53544484      -1.31056758      -1.66276933
Si       5.45263717       1.10758475       4.05070635       0.31168851       3.24483140       5.21648135
Si       1.64712012      10.22144580       3.41380750      -4.05804948       0.98453828       0.79211469
Si       3.45523228       8.94558007       1.63311452       0.87388883       3.13881033      -1.34658980
Si       4.46907582       6.64048851       4.67495860       0.37227388      -5.78156795       2.87061546
Si       9.54842429       8.22848078       4.26865505      -1.95312492      -1.20387030      -4.47121453
Si       2.66644545       5.06720331       1.88357578       2.63819400       1.79602060       2.07774871
Si       4.59212259       4.69243950       0.58633397       3.17642095      -1.99296048       5.24596198
Si       8.22048475       5.92517952       1.50463362      -3.12993546       1.37799495       2.47972559
Si       6.55297243      10.31372940       5.17057788       4.23468046       2.77292959       2.01041491
Si       2.50750575       3.13432924       3.21633221       5.01770390      -1.59306445      -1.40742453
Si       9.85008379       0.52899019       0.31783964       1.41041184       4.90774060       2.66689253
Si       6.56747600       4.28940497       1.97300579       0.37503309       3.22261462      -1.08146145
Si       6.40124081       5.95912666       3.61297812       2.14154258       1.04132746      -5.30297706
Si       7.83594085       9.53209010       3.28820896      -1.60579760      -5.31393323       1.47346752
Si       2.68808782       7.15458381       3.00686182       3.16153500       4.12532417      -1.63268292
Si       7.26699056       2.12636851       2.83399898       2.68443150       1.69030925       2.36403745
Si      10.57232840       9.09156207       0.69625121       0.27793845      -0.86728603      -2.25794353
Si       1.78605530       9.82704591       0.21773444      -3.76483843      -3.84668633      -5.54292997
Si       8.44797790       6.17505043       4.72526953       4.00441210      -0.76189997       1.86672383
Si      10.08812415       4.50551133       4.56190601      -3.07707884      -0.77528002      -0.65756220
Si       3.82019030       0.01794453       2.73602453       1.00734244       2.92831210      -2.05843133
Si       0.26663088       2.62863310       2.67155570      -4.72408212       4.04250421       1.48349585
Si       3.93764241       2.65980532       5.02035281      -4.70224419       0.33986829      -4.26443294
32
Lattice="10.953064772841406 2.0414019778866393e-15 2.391532347210215e-15 2.041341254603979e-15 10.953064772841403 9.315213603459425e-16 1.1956332070866667e-15 4.658151368277192e-16 5.476532386420701" Properties=species:S:1:pos:R:3:momenta:R:3 pbc="T T T"
Si       5.43810157       7.35747757       4.34842222      -4.80792409       3.70000809      -0.61970090
Si      10.69623441       7.02586050       3.48714399      -7.85017966       1.49813812      -1.48893045
Si       0.57712151      10.14890592       2.71106320       8.59732205       0.07176609      -1.15434578
Si      10.23130534       4.75084249       3.27635542       1.57894179      -2.02013500      -3.80774442
Si       5.12001863       8.32386730       2.20071471       3.50993854      -0.51309923      -2.60205044
Si       1.04123308       4.71066505       1.56327929       0.30159981      -2.78236946      -0.09666599
Si       7.32184187       1.55295486       1.96516303       0.96598427       1.53586879       0.58560639
Si       9.37077145       1.32643910       3.39374068       8.03033210      -0.99329858       1.07888296
Si       4.74527357       1.33529550       2.12964265       0.90916883       2.28025071      -4.66002769
Si       5.61368448       3.88260192       5.36333962      -6.50272676       0.82896618      -1.34595501
Si       2.29165651       9.40454761       4.14697263      -0.50548286       3.04808390       1.81149587
Si       4.31458378      10.25409935       3.24535910      -2.64754718      -1.43784928       1.26983906
Si       3.90027557       6.97594845       0.60719492       3.05050202       2.07804689       1.31240963
Si       8.99334837      10.11013625       4.30800262      -0.69211103      -4.05718377      -1.68615895
Si       2.01632791       5.85063231       5.03952655       2.88731457      -2.08686630       2.08538224
Si       2.78686815       4.52644328       3.10730496       0.24715702      -2.82775465      -2.47883141
Si       8.18980374       5.17948227       2.22311608      -4.36448497       0.41416203       0.19671373
Si       7.52862693      10.55815677       0.67792751      -0.03114155       1.20865259      -1.20977686
Si       2.96481309       2.20610386       3.51107445      -0.65357341      -4.72423885      -0.23734915
Si       0.78431093       1.50504319       2.59826804       2.39690301       2.06650293       3.48644894
Si       4.66734286       5.06070901       1.75092807      -2.62182850       2.45697107      -2.33988293
Si       6.20117835       5.30261251       3.52451092      -3.05636213      -3.75371595      -0.21566376
Si       7.50714797       9.08438713       2.50630844       1.34392442       4.86760115      -1.12279574
Si       1.89855121       7.57925929       2.60042815       0.33913299       0.86331727      -1.60024062
Si       7.81357856       3.45396854       0.68172522      -3.28274412       1.08070803      -1.95677170
Si       8.97830949       7.37425981       1.79784056       4.73236901      -5.65768399      -0.12279864
Si       1.21094312       8.97025190       0.75591659       0.62475968       1.54924812       2.45452206
Si      10.09205621       8.27020255       5.36690957       3.54840948      -1.66879430       1.54362514
Si       9.83098177       3.07679218       4.88821757       4.48356268       4.69594622       4.46588323
Si       6.17524331       9.57219932       4.50537544      -4.22030143      -0.30976328       4.27425708
Si       1.01670177       2.60952739       0.53186376      -2.45668164      -1.25465117       1.15148628
Si       3.67827327       2.39712515       0.26520319      -3.85423295      -0.15683437       3.02913783
32
Lattice="10.953064772841406 2.0414019778866393e-15 2.391532347210215e-15 2.041341254603979e-15 10.953064772841403 9.315213603459425e-16 1.1956332070866667e-15 4.658151368277192e-16 5.476532386420701" Properties=species:S:1:pos:R:3:momenta:R:3 pbc="T T T"
Si       5.77260794       6.71279033       4.68931007      -7.01147943      -1.18847284       4.19638753
Si       1.34227416       6.23813991       4.09519194      -2.67746358      -0.84907996       0.38586650
Si      10.90964760      10.32442417       2.23655290       3.89970322       1.02934930      -4.14116064
Si      10.58752514       5.89631823       2.47880053       3.24685798      -0.77620927       2.19103188
Si       4.55964266       7.33080057       2.75375606      -1.60971604       2.56795230      -6.09939123
Si       1.74029146       2.04453997       2.01935549      -1.68704259       0.99928468       3.11910523
Si       6.91062413       0.00725094       3.35433772      -5.24807912      -1.29594738       4.55964604
Si       9.07942579       2.34367688       3.69504406       1.03605229      -0.14433457      -2.37199241
Si       4.98910784       1.55131174       1.46503897       4.46983143       3.35332129       4.99441339
Si       8.00727342       1.07616629       5.32105420       2.70622648      -2.48457599       5.52482803
Si      10.27094204       9.07401130       4.16396908      -1.44607856       0.60402774       6.26136143
Si       4.45474301      10.29038849       0.65257507       3.31728477      -1.50253192      -4.81180375
Si       5.71132566       8.26066310       0.96408529       2.54004546       0.78101030      -2.56647057
Si       9.28705423      10.20532814       0.51355181      -0.83557027       3.64622906       2.29474288
Si       1.50184267       8.46283448       4.72161287      -2.07420799      -2.95373576      -3.07362326
Si       2.28653414       4.09208653       1.12659806       1.57030667      -0.33128936       0.14146769
Si       6.58721886       4.37273667       2.36265505      -2.65391959      -0.51818495      -0.81654108
Si       7.32459109       2.02747197       1.94751534      -1.34935590       1.14473353       3.25732997
Si       3.56855638       1.66510833       3.43517741       0.44839872      -3.33011718      -2.10984276
Si       0.19984980       1.28563154       3.55146078       3.86637745       0.02032134      -0.12565059
Si       3.16346275       5.44500797       2.83145308       0.47942459       0.06959280      -2.47482707
Si       4.93608072       4.57953512       4.08382344       4.05673657       0.65500756      -1.27628797
Si       7.68782763       9.14636941       1.84297570      -0.71755933      -6.31191636      -6.21853598
Si       3.07673858       9.06765033       3.11674290      -2.34751328       4.35773316       1.28273166
Si       7.75997321       5.86006535       3.83877563       2.50091959       2.32931151       2.99220801
Si       9.00670064       7.57303766       2.90667234      -7.21538818       1.46157091      -0.37811909
Si       2.04948458       9.76355528       1.10497186       2.72458068      -5.34772322      -0.01246321
Si       0.29790139       5.06815418       0.39088501       2.64869746       0.96261384      -1.73710133
Si       9.60949685       4.51660324       4.28294785       0.40343466       0.92971227       0.18149759
Si       4.62969135      10.62026754       3.85068404      -3.63030411       1.81971879      -2.20176422
Si       1.75015475       0.92632110       5.40509800      -0.71298902      -2.46489086       2.16203949
Si       3.93791830       2.95548675       5.35269899       1.30178898       2.76751923      -3.12908216
32
Lattice="10.953064772841406 2.0414019778866393e-15 2.391532347210215e-15 2.041341254603979e-15 10.953064772841403 9.315213603459425e-16 1.1956332070866667e-15 4.658151368277192e-16 5.476532386420701" Properties=species:S:1:pos:R:3:momenta:R:3 pbc="T T T"
Si       6.76560620       7.63169989       1.13108149      -1.66578716       0.52401309       5.21808377
Si       9.74865152       6.08637354       3.55726779      -2.34040092      -6.48787796      -3.09845467
Si       0.91175124       8.61969425       2.69135815      -4.05288513       2.63337141       2.18094328
Si       1.13825043       6.53642799       1.68092277       4.61001509       0.36626161       5.85199248
Si       4.56849446       7.58405866       1.99550554       0.08556931       3.30749594      -0.65720146
Si       1.31221737       3.07504932       1.37660571       0.83169110       2.88635660       0.59777699
Si       7.37645317       0.20276518       2.95315692       2.66533836      -0.10621062       2.47235983
Si       9.64172001       2.93764052       4.16587045       0.38925409      -1.75389493      -2.23695819
Si       2.05016388       0.90148008       1.61087285       0.51596278      -3.17936085      -1.36902425
Si       8.62330802       0.92278936       4.83736644       3.47112596       2.33625670      -3.18415669
Si       2.34649370       9.36290624       4.41692941       2.69253111      -4.88821602       3.11482446
Si       4.39751728       9.82874919       1.05653094      -0.85235456       5.64678722      -2.48531032
Si       5.91172666       8.99042311       4.87396482      -2.59501320       8.31962761       1.39954958
Si       9.64980608       9.86859670       0.07845900      -0.88816977      -1.77808403       0.47424389
Si       3.18740912       6.16381215       0.61558938       1.31183284       1.54418576      -4.29773974
Si       3.05844439       4.34232311       2.32907511       1.07582688      -4.30489189       0.84172030
Si       6.80461463       3.83964900       1.88096792       0.31882425      -5.30262465      -3.10512098
Si       8.02552520       1.87648690       1.39848026      -2.78443183       4.63320705       5.99555182
Si       3.12850424       0.51541750       3.70867915       0.50181374       0.27816266      -0.01737366
Si       0.19409647       4.60949513       4.84627537      -2.02833700      -2.44403269       1.01341513
Si       4.73244787       2.78654086       1.64585065      -0.79388178      -3.03665299       0.97901748
Si       2.54418385       4.38332990       4.61885348       1.43759433       1.18417672      -2.37138547
Si       9.73235376       8.44208082       3.64292252      -0.34334944      -0.31000519       2.61118674
Si       4.01437639       7.69485747       4.29586835      -0.59577386       3.98990852      -1.48930127
Si       7.92139783       4.60991519       3.87475016      -1.56658152       1.71254366      -2.79389482
Si       8.30895409       9.20377283       1.95031070      -1.84673375      -1.10610233      -0.91168864
Si       0.95835179       9.97113321       0.76838081       0.79756129      -1.31907405       3.08107327
Si       9.93462908       5.39367175       1.29748306      -2.41856146       0.07269714      -1.53478852
Si       7.64888823       5.54475301       0.54055722       0.36351280      -2.34428839      -4.70939866
Si       5.11303364       0.60653912       2.52429456      -0.56223706       0.34751421      -1.21932711
Si      10.00839671       3.08824989       1.88986861      -0.26582893      -5.27599305       1.89103594
Si       3.23874145       2.20998687       5.34820717       4.53187343       3.85474371      -2.24165053
32
Lattice="10.953064772841406 2.0414019778866393e-15 2.391532347210215e-15 2.041341254603979e-15 10.953064772841403 9.315213603459425e-16 1.1956332070866667e-15 4.658151368277192e-16 5.476532386420701" Properties=species:S:1:pos:R:3:momenta:R:3 pbc="T T T"
Si       6.18302895       6.13275334       0.23363010       4.63795037       0.70372972      -4.63750845
Si      10.33630051       5.86236516       3.50859142       2.91730198       0.35042610       1.90733124
Si       0.97224478       8.86274149       2.47152820      -6.84852572       3.71067893       0.02621699
Si       0.97264874       6.57853093       1.94356196      -2.34443977       0.45511326       7.05679500
Si       5.66807525       8.76737275       2.93387935       1.10855945      -1.09045972      -3.88669240
Si       0.97343579       5.18545982       5.14561849       4.09610951      -2.80071943       1.39153913
Si       9.15179476       0.38636685       3.27044361      -4.74815214      -3.60388095      -2.46611437
Si      10.42832881       2.27751733       2.65358768       1.83928478       0.37127188      -1.71554597
Si       3.26322181       0.48248753       2.01442987       2.88911850       0.79577013       0.39361238
Si       8.58622649       1.20295406       5.35343859       2.97988608      -2.42759270      -9.38007984
Si      10.45834669       9.61218827       4.07891558      -0.82575877       0.92146108       2.26949446
Si       4.82063563       0.53355383       0.18800969       0.65262872       3.65520454       0.07864929
Si       4.52606824       7.22400506       1.42460466      -0.24470641       0.18936822       0.10391247
Si       6.96137056       8.19111806       4.79855982      -1.35238214      -0.60673998       0.58264057
Si       2.81445008       6.82862591       5.02253325       1.01917370       3.02327712       3.63666107
Si       3.14660836       5.96164549       2.79745006      -0.75930996      -0.68333362       2.84212002
Si       8.97613372       4.07442140       2.88604840      -0.08096802       2.40276652       0.97055399
Si       6.95087607      10.47511908       0.32267928       2.74067485       4.69066630      -1.87518984
Si       3.01451101       2.28858096       3.67695511       0.33914725      -0.63010443      -1.79621259
Si       0.89846726       2.86242721       4.44051886      -4.51733990      -3.10015678      -1.62524917
Si       4.18435924       3.88239865       2.42765316       0.47833490       0.97525902      -1.85739672
Si       5.66007221       4.22276602       4.31059225       0.87331532      -4.70211827       2.05816724
Si       7.01250827      10.66393983       2.59555812      -4.73116108      -2.15880604      -0.62670438
Si       2.14537422       9.04986115       4.53021804       1.87578666       1.19100915       3.02325009
Si       7.78374827       3.33361445       4.72246126      -6.53263646      -1.32439938       1.50651047
Si       9.21652847       7.72809572       4.40235361      -0.09158020       0.99101683       2.22262285
Si       1.39653604      10.46160128       0.84729795      -2.29379980       0.32383227      -0.75164383
Si       9.99264661       6.27720228       0.55558330       0.55053988       1.30523660      -2.39663989
Si       8.12000721       4.92872601       0.91787862       2.49661124       4.24818802      -2.93403496
Si       4.03733203      10.19760861       3.82601060       0.59051358      -3.37354963       0.58587029
Si      10.90242579       1.39791236       0.55924875      -0.94704980      -5.18507788       5.97525249
Si       4.39526164       2.84977262       0.21899954       4.23287340       1.38266311      -0.68218764
32
Lattice="10.953064772841406 2.0414019778866393e-15 2.391532347210215e-15 2.041341254603979e-15 10.953064772841403 9.315213603459425e-16 1.1956332070866667e-15 4.658151368277192e-16 5.476532386420701" Properties=species:S:1:pos:R:3:momenta:R:3 pbc="T T T"
Si       6.78989710       7.36336868       0.78859065      -0.70732385       1.68360143      -0.46619943
Si       0.63442536       4.49454103       3.68505925       5.60879304       3.06457071      -3.29570025
Si       0.06181187       8.22632037       0.69639060      -0.93927625       1.61474691       1.81080949
Si       0.95703215       6.49274673       2.15243007       1.01267978      -0.74905969       0.42900856
Si       6.64644008       7.12968155       3.92816392      -5.42708160      -0.21042012       6.88559479
Si       1.95373729       3.29217340       2.09467503       2.25492838      -3.25905990       0.68127634
Si       6.71453772       0.45354419       2.35702605      -0.37396200      -2.75059250      -3.44382770
Si      10.26806263       0.47445030       3.23025088       5.06142403       0.11455338      -9.48644365
Si       3.35227691      10.46026652       1.86928911       1.09238889       0.82084143      -1.66904261
Si       8.22555586       1.47303422       3.84520355       1.96681285       2.24336378       0.71394258
Si       3.17601285       9.27707690       3.87869047      -1.75680854       0.36498252       0.04989183
Si       4.71052662       9.47051758       0.20713150      -3.94852837      -2.09717242       4.25319583
Si       4.46015491       7.27542156       1.12953805       3.53795957      -1.17916327      -1.48594624
Si       8.57061804       5.86636770       3.60931802       1.91835609      -5.10448093      -3.63704116
Si       3.56315224       5.92912835       4.94500475       0.88491761      -2.07759550      -1.38872005
Si       1.66699178       4.87263212       0.31596427      -2.43539349      -2.97993177       1.19752935
Si       7.89315191       5.31432870       1.38419451      -0.54860274       0.74663373       3.85884232
Si       7.42321456       1.82876556       0.54204163      -1.09775589       2.22947622       0.75894946
Si       2.73238165       2.25610464       4.46074796       2.26508696      -2.47861540      -0.06678951
Si       0.85343492       0.87097111       4.97467374      -0.12039286      -4.41377128       2.32658098
Si       4.45662353       3.54173775       2.18355195      -1.62811973      -3.35627962       1.93484827
Si       5.37285436       4.83384414       4.01221884      -0.87712269       2.07713736      -0.84345109
Si       7.35628752       9.03525162       2.36948529      -2.10581853       1.69282104       1.48934228
Si       3.04832370       7.14257040       3.01183008      -5.52858239       2.78998878      -1.94830421
Si       9.36714203       3.70192639       4.02426826       0.22675051       4.28328583      -5.31744095
Si       9.72302270       9.20112773       2.50196092      -6.89097222      -5.05300905      -2.26043173
Si       1.74929275       9.81960980       0.20307281      -0.99211544       2.58614974       3.81601049
Si      10.34187414       7.43740075       3.96324923      -1.88738296       0.75251499      -0.42360753
Si       9.25050507       3.30713835       0.88917406       3.88354812       5.86572126      -4.35428308
Si       4.49908259       1.29472920       2.84461114       2.04878850       3.29762741       0.65016074
Si       0.10030706       1.88488164       1.48044887       7.14054175       0.97032313       3.57998412
Si       6.12471207       3.80900976       0.54751893      -1.63773655      -1.48918823       5.65126176
32
Lattice="10.953064772841406 2.0414019778866393e-15 2.391532347210215e-15 2.041341254603979e-15 10.953064772841403 9.315213603459425e-16 1.1956332070866667e-15 4.658151368277192e-16 5.476532386420701" Properties=species:S:1:pos:R:3:momenta:R:3 pbc="T T T"
Si       6.13958225       7.54283424       0.99121574      -2.28683941      -2.84493629       1.23377953
Si       0.26767137       5.15841816       4.20876046       3.42500289       0.94407331      -1.98560864
Si       1.72525097       8.57916100       2.45476401      -0.75979348       0.41383147      -5.05754945
Si       0.31825074       5.43599336       1.82424808      -0.12024957      -0.35320625      -4.42846859
Si       8.65420462       6.87831110       3.52821268      -0.86350508      -0.09266120       2.23344826
Si       1.91726506       3.76572867       1.37428545       5.09936200       4.27582924      -0.42690906
Si       7.49961533       1.35754217       2.41005875       2.75868542       4.24037367      -2.30473187
Si       8.60287612      10.21777274       2.78250139      -1.40921382      -6.66330649      -7.24571366
Si       2.46091501      10.50927964       1.24452397      -0.84636402      -1.13308041      -1.96955868
Si       5.57821083       1.71101324       5.45765631       0.32191545       2.37932851      -2.05213799
Si      10.92284362       7.66838086       3.92744941       2.94613004      -0.86538684       0.17578755
Si       4.23751917      10.69959157       5.08440581      -0.20653585       2.32275167       1.85046940
Si       4.36056655       6.16362770       1.70808903       3.73540972       4.00298067       0.98020761
Si       9.47728188      10.59255925       4.96763781       0.08329326       1.19952249      -1.97115501
Si       2.85633010       6.30013396       5.35119776      -3.04661762      -6.88499552       7.32538305
Si       2.36092097       4.05832739       4.55253055       4.05866346      -2.66310270       8.14811958
Si       8.94784315       5.15062694       1.84676138       3.11473341      10.60617935       1.64785773
Si       7.96963024       1.44322663       0.07837130      -1.45242887       1.07591465       5.33969249
Si       3.38689575       0.68528441       3.09504965       1.53457377      -1.41890751       0.83276959
Si       1.53891620       1.86920564       3.92806598      -2.88006519      -7.55250521       1.76276418
Si       3.91726491       4.05215035       2.68250192      -1.38937480      -0.90637159      -2.14877747
Si       8.20021616       6.71174632       0.31092462      -0.56813527      -5.00573850       0.54336356
Si       7.01089855       8.53421215       2.96122801      -1.19958276       3.02344105       3.96551133
Si       3.56223510       7.50088295       3.47805367      -0.57001705      -0.78323172       5.53090317
Si       9.05666935       3.04210547       2.86972308      -3.94401434       3.27993823      -4.42494554
Si       9.53054452       8.73979028       0.95476768       1.18485522       4.91083620      -2.60478986
Si       0.57065292       0.68954878       0.24847774      -4.00566005      -3.67370636      -2.29281328
Si       0.85258128       7.37097058       0.65737220       0.78581728       3.72722290      -2.69836060
Si       9.45110223       3.37542172       5.18796506       0.04895131      -0.79210408       7.08321490
Si       5.30066293       8.69090439       4.56706062      -1.81991848      -0.87319466      -0.64266180
Si       0.20573593       2.23403772       2.00079939      -0.08210450      -4.09731150      -2.48524850
Si       5.16229013       2.05494416       2.34417967      -1.64697305       0.20152341      -3.91384196
32
Lattice="10.953064772841406 2.0414019778866393e-15 2.391532347210215e-15 2.041341254603979e-15 10.953064772841403 9.315213603459425e-16 1.1956332070866667e-15 4.658151368277192e-16 5.476532386420701" Properties=species:S:1:pos:R:3:momenta:R:3 pbc="T T T"
Si       5.50585811       8.25465526       1.79796682       5.34184079       1.04991923       6.98659016
Si      10.79242282       5.29553735       3.78357576      -3.39391963       3.72172763      -3.72550242
Si      10.84755044      10.28399218       3.40882140      -1.15230014       3.52154543       8.03162059
Si       1.64097535       5.15021218       2.31653397       2.26355740       1.54344994       1.76462603
Si       7.82997659       7.49173206       2.53186634      -3.24871586      -2.68188823       3.47399214
Si       1.41846546       2.80463184       1.40330036       3.79091914       3.01880045      -2.50452739
Si       7.28295978       0.40249008       3.73295745      -1.52649858       0.21460638      -4.54196354
Si      10.15942126       3.02988859       4.17167805      -2.20737457      -3.47180788       3.80173554
Si       2.40251765      10.45814857       0.44919298      -0.43970670       1.81115891      -3.75179949
Si       7.87093231       2.79158585       3.67809736       2.43376589      -1.98571304       0.03261585
Si       1.19676806       8.26740671       3.30287219      -1.25374653      -2.77380220      -7.74682247
Si       4.02348885      10.16443877       2.18672192      -0.52442313      -0.20748186       0.99862911
Si       4.12142164       6.80296576       0.42965729      -2.17648183      -1.79464200      -0.04862480
Si       6.82902661       9.56811616       5.37649999      -3.09862917       0.05646941       1.14844975
Si       1.82396329       7.18663241       1.20651975       7.54376462      -0.60078421      -3.58707252
Si       4.74752974       4.44764818       0.28215584      -3.94368281       0.17650186       2.54800810
Si       9.45213751       5.87826016       1.90260661      -2.40998803       3.43901297      -3.45754184
Si       5.29971005       1.11202205       2.75496225      -2.56860784       0.09099216      -2.61947915
Si       2.36154686       1.68051630       5.04723794       3.00544096      -1.95266796       2.98962041
Si       0.79336402       1.54314796       3.30094531      -4.19425168      -1.31827440       1.28138172
Si       3.50326290       3.79333311       2.17000795       3.62126496       1.50595150      -0.74984663
Si       7.41426720       6.74931850       4.75517890      -0.67732417       1.38368733       5.22066873
Si       8.67823915       9.72575128       2.65305216      -0.76658899      -0.39153270      -5.74298696
Si       3.18162715       9.16941066       4.14486473      -3.53343258       3.36910315      -0.31806153
Si       7.04968140       4.38338540       5.28006567       5.08829568      -4.41683158      -2.73681343
Si       9.12226112       8.92820804       0.33724544       5.27740525      -2.75203402       8.20106947
Si      10.75525192      10.71306745       0.35959009       1.56106836      -0.96704323       2.59840906
Si      10.69115802       6.96473118       0.03838924       0.81676857      -2.75603209      -1.94510940
Si       8.43824115       3.73254520       1.59289819      -5.02107118       1.96091844       2.21572541
Si       5.34339411       8.02323902       4.26377874       1.75252490       2.12223199      -3.89926440
Si      10.11418781       2.18778704       0.83014115      -3.16558757      -0.91133401       2.17261438
Si       4.21102997       2.75199299       4.11292493       2.80571446      -0.00420740      -6.09034050
32
Lattice="10.953064772841406 2.0414019778866393e-15 2.391532347210215e-15 2.041341254603979e-15 10.953064772841403 9.315213603459425e-16 1.1956332070866667e-15 4.658151368277192e-16 5.476532386420701" Properties=species:S:1:pos:R:3:momenta:R:3 pbc="T T T"
Si       6.19198636       7.08514891       1.20211016       3.48053023      -4.82266255       3.76720009
Si      10.57198964       6.50472746       4.58492735       3.09345104       1.16474699       0.37416543
Si       0.72444997       0.75816505       1.78742331       1.48242876       0.00829674       5.22846293
Si       1.66829410       5.46227471       4.07458747      -3.98311618      -0.88232747      -0.53291944
Si       5.32377624       5.90487580       3.04045533       0.25402727       2.47279993       2.73119430
Si       0.88687981       5.20655365       1.85649194      -9.96781633      -2.82222077       1.62186961
Si       6.85750231       9.93388920       3.69525737       4.74481501      -0.26331718      -3.50500363
Si       9.06087226       3.16519932       3.18146665       0.81136468       1.51785732      -3.80740222
Si       2.74864255      10.61268299       2.49961808       0.18411136       2.62598680       0.13880392
Si       5.03133319       2.68279297       3.80783283       6.20292252       2.73158232      -3.74992844
Si       0.48273092       9.14799837       4.51340162      -1.44919182      -5.51014295       0.38920347
Si       4.42332848       0.20909806       0.93600762      -0.86449335       3.92346177       0.10542464
Si       4.19446080       8.03473452       0.25097611      -1.22870995      -3.52369613      -3.39998158
Si       8.01672144      10.21655703       0.28308627       1.63323712      -0.52200143      -2.27631841
Si       2.60566940       8.31626638       1.95111396       0.30167091      -4.80538479      -0.58166724
Si       2.39807026       4.15681774       0.46187419       2.60350063      -4.78808694       3.78017341
Si       6.92429848       2.58757463       2.33883266      -2.35882679      -0.85408965      -3.27807132
Si       6.61941647       0.39237670       1.79642098      -1.42111200       0.87803904      -3.49502201
Si       1.48113563       2.08029287       5.41830854       3.44333671      -0.02062831       1.87009639
Si      10.69760484       1.56675789       3.82214015       0.69304577       1.64235531       6.73258064
Si       4.29247921       4.06530207       1.97252029      -2.23491235      -2.49936156      -2.45918206
Si       6.74349685       5.55221912       4.97616957       3.74188276       1.89220609       1.86767969
Si       7.86038969       8.55598746       2.03465249      -2.90786816       2.68168287       0.65975877
Si       3.38637747       7.00552840       3.77395483       2.71120800       2.95669238      -0.86013934
Si       5.91164316       3.55656733       0.36715629      -1.75806267      -0.51134505       3.15306031
Si      10.03248066       8.04730020       2.89540494      -1.92734308       0.01708705      -0.95394441
Si      10.24187970      10.88758784       0.02545204      -3.71628827      -2.46454081      -0.71055920
Si       0.50241838       7.49801722       1.13255946      -4.29875649       3.66801913       3.74606140
Si       8.97987550       4.81698172       4.86222925       1.71616671       0.16071565      -4.19563748
Si       4.62672432       9.89387864       4.43077036       2.00129286       4.31423015       2.16984017
Si      10.07591008       3.82726774       1.21381737       1.44117343       2.90640873       0.20969394
Si       3.43367056       1.05231150       4.41528729      -2.42366833      -1.27236267      -4.73949234
32
Lattice="10.953064772841406 2.0414019778866393e-15 2.391532347210215e-15 2.041341254603979e-15 10.953064772841403 9.315213603459425e-16 1.1956332070866667e-15 4.658151368277192e-16 5.476532386420701" Properties=species:S:1:pos:R:3:momenta:R:3 pbc="T T T"
Si       5.96566748       6.96975985       0.74455798       1.48899390      -5.05875730       4.10227741
Si      10.55159981       7.86503958       3.65968192       4.16848305       3.61409904      -3.09845479
Si       0.95218620       8.59361725       1.84791265      -0.78169229       3.06930224      -1.42310739
Si       0.54292806       5.76381021       3.85685692      -0.55395859       3.75689662       2.98219648
Si       4.42773557       7.65404304       2.51235838      -2.00668976      -0.71743122       1.09314847
Si       1.13079254       4.99039153       0.46335690      -0.61819279       0.90466151      -3.81421042
Si       7.00731720       1.10090670       3.65785134       2.20686572       1.24888617      -2.24502688
Si       9.30113726       1.57080480       4.14452788      -2.21901178      -3.65339682      -3.59118561
Si       1.02463381       1.31864332       1.11438448       0.49498629       2.80787933      -0.04199190
Si       5.83613592       3.17584145       3.46647726       5.76615610       2.15030479      -4.27950559
Si       1.69428284      10.66015698       2.75229869      -0.05636641       6.59462453       1.86771634
Si       4.95194054       0.38854573       1.02676697       4.15356766       5.50579472      -0.09683503
Si       4.11208523       6.45860423       4.77575449      -1.69158639      -2.88806537      -2.85358137
Si       6.94552693       8.55998251       4.82012992      -4.39522429       1.52780209       2.41042957
Si       2.54573764       6.90411067       1.14133133      -0.96426712      -0.47091911       5.60452272
Si       2.13418332       2.93506078       5.25645533       0.50777122      -1.79041015       4.93916560
Si       6.92779746       4.04108935       1.54771260      -0.60749468       5.00971459       0.57684684
Si       7.27576646       0.47330912       1.45867083       1.04668834      -5.35970629       0.23295760
Si       3.45355916       3.25563638       3.15047898      -2.68579168      -4.75017818      -3.12370777
Si       0.23926120       0.22927440       4.65925635      -0.27952892      -3.93560076      -1.22454297
Si       2.74166201       5.50761197       3.05466472       0.69512298      -2.79328170      -1.87100080
Si       5.28460631       4.37696008       5.39735292      -2.94787648      -1.01134871       0.67286367
Si       8.29855306       7.91282516       2.96918480       0.73856507       0.28389463      -0.09969922
Si       3.99626055      10.02105980       2.74094640       8.43440292       1.63207547      -0.84324359
Si       8.42241241       2.37079986       0.70254258      -4.75593904      -1.71602007       4.52060881
Si       8.32147325       9.35290658       1.06711910      -5.65447264       1.08466322       3.04481966
Si      10.47107710       9.18029091       0.10723789      -2.87458159      -0.87574483       2.36137523
Si      10.38285618       4.80053322       2.06692447      -7.23704607       0.98624872       1.98131562
Si       8.26857834       5.90336591       1.80300533       0.29312102      -3.06523249       0.28572795
Si       5.53464288      10.41200534       4.46056440      -3.55569484      -3.67964753      -1.50890155
Si      10.20285857       2.48989500       2.18702692       6.83005555       1.33420491      -1.72750359
Si       4.05125345       2.59378706       0.98891606       7.06063555       0.25468795      -4.83347349
32
Lattice="10.953064772841406 2.0414019778866393e-15 2.391532347210215e-15 2.041341254603979e-15 10.953064772841403 9.315213603459425e-16 1.1956332070866667e-15 4.658151368277192e-16 5.476532386420701" Properties=species:S:1:pos:R:3:momenta:R:3 pbc="T T T"
Si       5.63847803       7.70871960       0.86089510      -1.67816396      -2.80557146      -0.46580184
Si       0.85752116       6.45737158       4.66439633       5.56462145      -4.36489821       3.85474376
Si      10.18580493       9.70865804       0.53750981      -2.66801500       2.22112811       0.23741729
Si       2.29284705       5.64945223       2.46033051      -3.52323780      -2.05784523       0.38536412
Si       4.93387618       6.05210689       4.02809205      -3.44926201       6.07537724       2.12732878
Si       0.54099661       4.16465297       1.75031612      -1.50023081       3.96657390      -5.78012139
Si       7.36297557       2.53967703       2.71754692      -1.78456852      -3.67600080      -2.39505230
Si       9.17760972      10.55625977       2.48217480      -0.02695523       1.56071439      -1.08971629
Si       3.77578316       0.60532988       0.77472280       1.65145772      -3.39355050       1.16832910
Si       5.56772668       2.48599241       4.23971533      -3.50055476       3.65855824      -0.04962210
Si       2.68443687      10.03843161       4.69926661       4.28613793      -3.69029390      -3.77120760
Si       5.96867678       0.41310909       5.37873550       1.53658232      -5.03288089      -1.36125154
Si       3.07714246       7.54858897       4.86904075       7.38634611      -2.71286407      -4.41420856
Si       6.56623697       9.11072597       4.66647015      -1.12897645       4.38196162      -0.54507606
Si       2.59435529       7.85658690       1.66696091      -2.74464004      -0.98165189      -4.60534678
Si       0.67925987       4.10794599       4.91788762       0.51821188       1.69910928       2.45028289
Si       9.34388762       4.88872448       2.50241555      -0.95520211       1.66811476       5.50929374
Si       7.03751952       0.35449365       1.95991833       2.50930982       2.62995003      -0.63267452
Si       3.59368202       2.29610350       2.71041804       4.13962815       0.07416006       2.04114755
Si      10.45663847       1.30248495       3.54773226      -1.67417697       2.64205440      -0.33638233
Si       4.30682743       4.51065207       2.19598944      -2.02531366      -5.38370956      -2.54320431
Si       5.62889175       4.47240577       0.20085249      -5.90876204      -3.69667676       7.94673482
Si       8.89700110       8.92840573       4.16135782       3.00690787      -3.16454869      -4.04696395
Si       3.41165925       9.92475787       2.48844435       0.98791244       2.64038853      -0.86006696
Si       9.17184818       3.27346929       4.27916231      -0.77690383      -0.04012203      -2.51589258
Si      10.06565552       7.05515490       3.15313972       0.67083492       8.97817416      -1.47156964
Si       0.78434618       0.43093160       5.35345139       0.11212337      -5.34633498       6.54899529
Si       0.29096768       7.74729753       1.20289625      -0.73712032       3.45720559       2.28879393
Si       7.89435059       3.98584940       0.81973020      -4.80074521       0.64695692       0.35976612
Si       5.67953778       9.41761064       2.54582282      -0.89250109       6.84441183       3.57545380
Si       1.12684963       1.86711952       1.91996330       4.03088491      -2.87003041      -0.08507524
Si       2.45005392       2.37159889       4.80001600       3.37437089      -3.92785967      -1.52441722
32
Lattice="10.953064772841406 2.0414019778866393e-15 2.391532347210215e-15 2.041341254603979e-15 10.953064772841403 9.315213603459425e-16 1.1956332070866667e-15 4.658151368277192e-16 5.476532386420701" Properties=species:S:1:pos:R:3:momenta:R:3 pbc="T T T"
Si       7.25980646       6.92703608       0.48124392       0.74268038      -0.01628780      -1.94326511
Si       1.89147837       8.08907809       5.36743030      -2.54185478      -1.03038834       4.05956694
Si       1.81535853      10.56089994       2.02394570      -2.46446745       3.86106381       7.38640169
Si       1.50351352       6.61990996       3.58135141      -1.89233513       0.01732222      -0.69598422
Si       7.14085417       7.07225888       2.79909671      -1.63014650      -3.03085290      -2.00421954
Si       1.15886788       3.19979128       2.77707199       5.27748104       0.47535287      -2.80549607
Si       8.08049083       2.32624294       1.35609625      -5.11449877       4.73268724      -0.34488433
Si       8.92458637       0.05363007       3.85498944      -6.61481358       0.03572641       2.18824017
Si       4.77073184       1.02246703       3.18705178       2.57041951      -4.27236793       0.07203364
Si       6.40595074       2.72343131       3.11414865      -0.78285359       0.10927018      -0.57786981
Si       0.01611200       9.93859818       3.45991208       2.45404913      -0.87793352      -0.47989379
Si       5.46131615      10.47324148       1.53372261       3.36143897      -1.77848985       4.29495691
Si       4.05975846       8.35026514       4.39717663      -6.33930773       0.81736848      -3.00424213
Si       8.53178702       9.21050347       0.14820002       1.50089545       2.41921152      -4.31630368
Si       2.80576834       6.78827295       1.64790741       2.68555109       0.66862667      -2.97094445
Si       3.08051189       4.41979976       1.81245530      -6.64469325      -0.83469778       0.94054207
Si       9.09357405       5.78990513       3.29793490       6.63217333       0.77331062       0.05484123
Si       7.83669905      10.82293449       1.73335549      -1.01202163      -1.35810813      -4.47511148
Si       2.43609623       1.31423195       3.67100033      10.47819304      -2.02890715      -0.04729799
Si       1.10348930       4.58343044       4.71134457      -1.85902160      -0.94602940      -0.02142686
Si       4.75011585       4.37655018       3.58120205       4.43630187       5.79139577       4.88831669
Si       5.52480423       6.47972979       4.35766590      -1.94077460      -0.91639343      -4.91077656
Si       7.21935923       9.30558658       3.63578779       6.12574088       4.97619004       2.85445983
Si       3.66950856       8.96746993       2.19978078      -3.51299768      -7.03066689      -5.32688102
Si       8.36019841       2.31092284       4.46369190      -0.35361932      -3.03418266       2.82317376
Si      10.51682991       7.65336819       2.87458290      -1.30457991      -3.58615119       0.29962255
Si       1.55538995      10.58608203       5.15712278      -4.07841702      -6.01770655       3.27681280
Si      10.43090004       7.82520511       0.52891896       0.80416569       5.61771995       1.66016718
Si       9.34392854       5.70246798       0.20334233      -2.61177623       4.78644898      -3.72389995
Si       5.36056032      10.26638710       4.69100098       2.31647168       3.53504657       3.17075430
Si       9.67123211       3.47875903       2.77635220      -1.28386944      -1.51693062      -2.11966779
Si       3.21693042       3.45140573       5.13048749       2.59648618      -0.34064721       1.79827504
32
Lattice="10.953064772841406 2.0414019778866393e-15 2.391532347210215e-15 2.041341254603979e-15 10.953064772841403 9.315213603459425e-16 1.1956332070866667e-15 4.658151368277192e-16 5.476532386420701" Properties=species:S:1:pos:R:3:momenta:R:3 pbc="T T T"
Si       6.98374484       6.87649766       0.04458961       2.90645181      -4.04922877       2.70460591
Si       1.88691508       5.76946494       4.25881045       5.13030485       2.03013710       3.16307927
Si       9.92872682       9.73349156       0.18376815      -0.32749124      -1.62892064      -0.15997748
Si       1.42265320       7.50965677       2.77339021       5.29957999       1.91263979      -3.20500404
Si       6.06656723       6.04073852       2.09486213       0.08396792       2.54168235      -0.57839566
Si      10.33154412       2.83560250       2.67463851       0.24503107       2.27331616      -2.38930473
Si       6.80834229       1.61478592       2.09587709       2.01258107       3.33342387      -2.15134952
Si       8.69561051       1.19312830       3.51574121      -2.66594039       3.21914288       5.76865896
Si       2.91164016       1.28191922       0.36543105      -5.97891916       4.67468713      -2.02924282
Si       6.32138401       3.04231004       3.99110421      -1.53035331      -2.84579904       1.63805395
Si       0.51942706       9.38013870       3.87754061       0.72772911       1.24407194       1.27516776
Si       4.09486340      10.19173524       0.15504725      -3.81906891      -3.69690347      -4.11882236
Si       3.19374791       8.47340552       1.56781764       3.05017326      -0.38942146       0.85863935
Si       7.61525790       9.18991786       5.45983958       1.43091721       6.59507951       0.83904517
Si       3.57934270       6.60264651       0.15234334       4.51013392       3.23512020       2.64514521
Si       4.26956773       4.70968031       1.34491052      -2.56993018      -1.85520359      -9.52568082
Si       9.65791726       5.07947984       3.30590338       0.67472775      -1.56413539       4.51192625
Si       6.09087397      10.35213248       1.59622278      -5.12793780      -1.77372090      -1.07920050
Si       1.70781012       2.11549490       2.35687418      -0.40784745      -1.72671148       3.86090242
Si      10.41415605       1.03206341       5.16011363      -6.38878833      -2.74440201      -0.63417126
Si       2.96092332       3.95477678       3.17681466       2.19082277      -2.45349756      -2.70180164
Si       7.38441238       5.15329598       3.80608978      -1.15029585      -2.20041013       0.36407345
Si       7.83019223       9.89346903       3.22583232       0.48046855       2.49970232       1.12419608
Si       5.21190862       7.24783420       4.01202612      -0.95660766      -0.55791596       1.20034166
Si       7.81289070       2.31526422       0.10781325      -3.32937808      -0.58270895       1.48310559
Si       9.75587339       8.91128350       2.31360551      -0.03041902      -7.58836367      -4.89946400
Si       1.49508592       0.57250004       4.09772329       8.09562265       2.05674691       2.25656470
Si      10.39259391       6.68559971       1.75436295      -1.97736396      -2.56678990      -3.46415074
Si      10.78651069       5.33082585       5.32967964       0.45285483       2.48716856      -1.76818931
Si       4.61973396       9.37843445       3.32896884       0.73953524       5.48635818       4.98929334
Si       9.94698783       3.18514705       0.45175437      -1.62890827      -5.39848245      -3.65188553
Si       4.20543298       3.13101249       5.02281051      -0.14165237       0.03333846       3.67384133
32
Lattice="10.953064772841406 2.0414019778866393e-15 2.391532347210215e-15 2.041341254603979e-15 10.953064772841403 9.315213603459425e-16 1.1956332070866667e-15 4.658151368277192e-16 5.476532386420701" Properties=species:S:1:pos:R:3:momenta:R:3 pbc="T T T"
Si       6.29657640       7.00225971       0.15983331      -7.45466420       6.09085158      -1.87676176
Si       1.05758437       7.64288624       3.68334200       1.40484452      -2.28619889      -0.68533554
Si       9.65255532       9.50873179       0.73442311      -0.22852777       1.65557125      -1.05711162
Si      10.06751610       3.99770425       3.21220068       1.92250421       1.14051017       5.94430201
Si       6.83994751       5.48745525       1.78749057       4.01877089       0.38924564      -2.23098601
Si       1.62911555       4.02492742       2.87029326       3.37899113       0.63223971      -0.18245114
Si       8.91233277       0.99065276       0.87802946       2.04695008      -3.69208652      -0.31925793
Si       8.99347159       1.86652798       3.05355494      -3.59900962       1.74262627       0.98618474
Si       3.17549775       1.55710716       0.46077416      -0.11023102      -5.14956309       0.05704851
Si       7.10262688       1.62916175       4.60812856      -1.11249751       2.14016687      -0.42097930
Si       0.43046949       9.72657850       4.61602182       1.27808744       2.72859977       5.06479239
Si       6.08125359      10.16002459       1.61359868       1.79402941      -1.92817026       4.91521355
Si       3.84871829       9.30909823       1.58521909       2.07746603       4.30392051       3.85352633
Si       7.43397363       9.03305907       0.01294301       1.06114137      -2.62249718       1.39595905
Si       3.99397542       7.17024721       0.64954774       0.35293125      -0.84654319      -2.70844446
Si       2.72912477       5.15979677       0.98004003      -3.04191573      -0.56132319       0.70167797
Si       9.16069407       5.54365973       1.76945615      -0.16925511      -1.58493768      -5.73830101
Si       5.48818924       1.40363908       0.94408016      -1.55808759      -3.37109437       0.18009551
Si       1.46150389       1.87331638       2.02498393      -2.41112886       0.68523712      -2.74682330
Si       0.10182836       0.90577323       3.71121794       5.50352828      -0.88745220      -9.35331691
Si       5.38055728       3.60473781       1.68429561       7.08766071      -2.04965736       3.78303693
Si       5.61267770       5.92275932       3.72621931      -2.22214100      -1.16041380      -6.82253243
Si       6.36317708      10.41794771       3.92233678       0.80658922       1.84315061       2.95235481
Si       3.54956707       7.35093462       3.71583865       1.55064412      -0.88725723       3.87375758
Si       5.38017686       3.56017002       4.06009201      -0.80710813      -0.20409429      -0.42301143
Si      10.55313722       7.48148644       1.79440385      -1.13766611       6.00021211      -0.16828072
Si       2.54517381      10.36018741       5.42689412      -5.78333306      -5.44513808      -4.22097682
Si       0.79620566       6.25493407       0.11261986      -0.30486286       0.85427150       0.42301431
Si      10.25069134       4.44230414       5.45665603       0.81789674       5.01852823       3.67967898
Si       4.12212868       9.65368194       3.89053810      -4.50526156       1.35728766       0.33501771
Si      10.88604308       2.16404598       0.26597556      -2.85349756      -1.88786111       2.61137584
Si       3.10001801       3.57793697       4.71472590       2.19715229      -2.01813056      -1.80246583
32
Lattice="10.953064772841406 2.0414019778866393e-15 2.391532347210215e-15 2.041341254603979e-15 10.953064772841403 9.315213603459425e-16 1.1956332070866667e-15 4.658151368277192e-16 5.476532386420701" Properties=species:S:1:pos:R:3:momenta:R:3 pbc="T T T"
Si       4.89064299       6.49285104       0.83253414       0.03517910       0.16394488      -1.96284776
Si       1.05472820       6.92057034       3.68999598      -0.26157099      -3.84231451      -1.77499084
Si       9.85056766       9.34058204       1.16978182       1.40858226      -3.62269675      -3.85751674
Si       1.60321732       5.60296182       1.78770356       1.29502275       1.20145413       5.10482726
Si       6.24903265       6.64873412       2.76403778      -7.05394522      -2.55191524      -2.52115997
Si       0.84019125       3.96377791       3.61404152       2.08373007       2.20917733      -0.30912225
Si       8.14210415      10.79908985       1.97285052      -2.59406686       0.76702388       4.68019661
Si      10.47329104       2.18233143       2.90912100       2.49930720      -5.48597059      -3.18820680
Si       3.25514263       2.06847706       1.06638951      -3.09228962       2.01665320       6.34755187
Si       4.98597349       1.30511479       2.45453009      -1.20026291       4.47787400       2.55974799
Si       2.10200644      10.56623062       3.91694471       1.27986955      -2.49383172      -3.51661640
Si       5.88922434      10.15119379       1.87003974      -3.78016115       0.30978043       0.67794237
Si       5.10155966       7.90733133       4.40812516       2.27536143      -1.61408778       0.11604447
Si       8.77526442       8.29272111       4.87791666      -1.21839401      -0.96143779      -2.86087219
Si       2.87961443       7.60135854       1.34264261      -2.79519506       1.11970241       1.77446639
Si       4.86276828       4.17034979       0.18352607       4.58193416       1.62884738      -0.59649708
Si       8.55705074       6.26679360       2.41881665       2.05358537      -5.71164400       0.44467076
Si       6.40476776       3.09623515       1.76993254       1.56128467       0.46232293      -3.54603832
Si       1.36562113       0.90049853       2.03405643      -3.91516752       2.69466329      -0.24015115
Si       9.61540514       1.13480349       4.85572508      -2.59643917       1.67700934       1.75525563
Si       3.04592271       3.99515487       2.78240785       0.70236567      -0.12031989      -2.97494030
Si       6.12757962       4.44077518       3.66339625       0.52842925      -4.24025772       3.70064447
Si       7.94491205      10.45898464       4.28020718      -3.02929770       3.15837769       2.48415164
Si       2.89944349       8.35806679       3.61068091       1.79787541      -1.13587665       4.85524625
Si       7.82898209       3.93946673       5.22411666      -0.05389638      -0.27714113      -0.40611687
Si      10.06504801       7.93515626       2.99695370       2.72706621      -3.03313496      -0.00199169
Si       0.46659074      10.76234065       0.18101870       1.26251657       3.96523270      -3.32618750
Si       0.31068569       5.44681116       5.33329923       2.33201527       5.88916442      -2.32419816
Si       8.97114051       5.94306474       0.14376045       0.63888973      -0.54497307      -4.82900277
Si       5.71344221      10.11008052       5.01923261      -2.92074619       5.03048151       1.29711837
Si       8.68025185       2.13418518       1.32632790       5.23653778       1.29730967       1.24505749
Si       4.04433605       0.80070525       4.57872614       0.21188034      -2.43341740       1.19353522
32
Lattice="10.953064772841406 2.0414019778866393e-15 2.391532347210215e-15 2.041341254603979e-15 10.953064772841403 9.315213603459425e-16 1.1956332070866667e-15 4.658151368277192e-16 5.476532386420701" Properties=species:S:1:pos:R:3:momenta:R:3 pbc="T T T"
Si       6.77002799       5.69354333       0.31117848      -0.97979566       2.49916868      -1.72265280
Si       0.25301728       5.52368978       4.19933329      -6.92176884       3.79352365      -0.05589039
Si      10.30547792      10.25616756       1.77601355      -3.06250494       1.21614730      -1.35376038
Si       0.99885824       7.05171476       2.51973087       2.63964849       4.54884882       5.06338160
Si       6.64511868       7.45381133       4.23599026       4.70310385      -2.75610270      -2.84807837
Si       1.71622764       3.74929213       4.68040247      -0.57445076      -5.33629920      -1.64161460
Si       8.47633700       0.57503791       2.64063425      -0.03103356      -6.18944024       3.60361469
Si       9.51176762       2.67884219       1.96608847      -1.57619488       1.64405372       1.22684985
Si       1.19708240       0.45335276       0.86789795       0.67002895      -1.31686300       3.26969391
Si       6.25114820       0.72339413       3.82913061      -4.24093508      -3.94897341      -4.41373509
Si       0.28214024       9.08169120       3.54915965       2.28131491       2.31170942       7.04953395
Si       5.04538041       0.79273787       1.84430060      -1.29503735       2.69284089      -0.93464194
Si       3.67259182       8.99164246       0.03733084       0.23186121      -1.61247687      -2.67523761
Si       7.44933458       8.93778371       0.37141738      -1.84523980       2.21580328       2.42117052
Si       3.30447065       7.38913694       1.92886780       4.70143256      -2.02890870      -0.46604618
Si       3.58275133       3.67005916       0.65339442      -4.01032133       0.44298023      -4.41298832
Si       9.18643611       4.50996235       3.33992394      -4.21192726       3.14309527       0.65056223
Si       7.46043503       1.97616391       0.78878526       8.51143924       3.84567460       1.58965843
Si       2.79020005       0.73926156       2.57278805       2.88240587       0.85511394       1.43661421
Si       9.10502494       1.89684082       4.46692156      -3.30515841       0.21341153      -3.70352245
Si       3.20232588       3.01119489       2.93598432       1.98332866      -1.95550355       1.62888486
Si       4.39614673       5.83474352       0.53213001      -6.80805320      -0.30283902      10.64926805
Si       7.98079395       8.18131953       2.51459930       2.03190533      -2.49961112       2.18511831
Si       4.33277070       7.30143996       4.04275303      -2.46571928      -1.66207030      -6.06878555
Si       7.27523112       3.79031856       4.59874151       0.92504557      -5.09711081      -4.58728515
Si       9.79427629       8.88712678       5.41762394      -0.93813260      -4.34800603      -4.12949386
Si       2.07366363      10.34882486       4.43182130       0.73584340       5.66568195      -2.63017105
Si      10.53506652       6.75170784       0.63934392      -1.48398066       4.45659314       2.72808326
Si       8.57203355       6.07336539       1.72753845       2.06869805      -3.76739640       1.60346805
Si       5.61454401      10.31947038       0.13951879      -1.21115590       1.29325784      -2.44157904
Si       0.09455569       2.36313378       0.19465498       5.37323311      -1.42031106      -1.28131944
Si       5.12127255       2.82389740       4.37177516       5.22212032       3.40400815       0.26090028
32
Lattice="10.953064772841406 2.0414019778866393e-15 2.391532347210215e-15 2.041341254603979e-15 10.953064772841403 9.315213603459425e-16 1.1956332070866667e-15 4.658151368277192e-16 5.476532386420701" Properties=species:S:1:pos:R:3:momenta:R:3 pbc="T T T"
Si       5.78081332       5.86369180       0.44933467       7.97631794       2.92269425      -2.37344839
Si       0.49866770       6.74787198       5.39492247       0.69912851      -2.77930590       2.50020069
Si       9.07437817      10.14909230       2.17000269       0.15677200      -1.64533609      -3.54711124
Si       1.61751685       4.93985124       4.32127755      -3.90991807      -0.87518529      -4.44604062
Si       6.41700952       7.24195955       2.27189542      -1.52356065      -3.59825688       0.84564065
Si       0.63512922       3.80519946       2.47112969       1.80363763      -3.52554519      -0.96808139
Si       7.67702832      10.86268743       4.01659891      -4.40398177       3.88234472      -3.00829154
Si      10.88332265       0.62745933       1.93186439       3.66547735       0.56491301      -0.50715791
Si       2.18805800       0.00668631       1.45528191      -0.08317615       0.74149084      -0.95305867
Si       7.79565482       1.95559851       5.24851761       6.96812175      -0.03522291      -4.76252927
Si       1.24861318       8.15394523       3.68895407       2.53797303      -7.57248798       3.97955736
Si       5.77652243       9.31904236       1.37820833      -3.30784416       2.57863265      -1.96545340
Si       3.38827784       8.98761119       0.97506711       0.48289663       2.96361703      -2.92567777
Si       7.87315019       9.28650864       0.24660075      -2.82432296      -0.05484352       1.51358712
Si       2.12008126       7.12794058       1.69767069      -1.82098267       6.54463133       0.49234325
Si       4.50249957       4.12081399       1.41216811       1.17320915       0.60177320       3.14024255
Si       9.28462089       4.45524553       2.00097427      -0.10015204      -0.07258599      -2.59202365
Si       6.29812331       2.47696503       1.74910027      -1.63325215       1.43588688      -2.96954688
Si       3.54972417       0.21031000       3.40964293       2.31735231      -2.11012675      -3.06514492
Si       0.36630301       1.89438699       3.87591770      -2.92454631      -2.67219139       4.23656054
Si       3.42464842       5.57312587       2.96855244      -0.45534280       6.59309951      -0.43548765
Si       4.90930728       7.00297177       4.03335760       4.17092263       0.46974210      -0.38462807
Si       8.69879382       6.69069317       2.78848757       1.84512348      -6.59543187       2.69809582
Si       3.43349901       8.90081094       4.15313228       1.97724925      -0.30481681       0.78213474
Si       7.70117209       3.50366199       3.48160670      -2.38373655       2.48345083       0.33725907
Si      10.35981120       8.22619686       2.25420464      -4.00910763      -5.68742517       6.37845194
Si       2.36826377       1.41909031       5.05369074      -1.77589673       1.66169841       1.04777650
Si       9.02536568       7.13951579       5.09401951      -1.93405121       4.15427711       2.36330828
Si       7.93282420       5.06849549       5.43071528       3.38352628      -1.52659939       0.91134695
Si       5.77269902       0.33253938       2.70039687      -2.67153762      -0.41937995       4.12482321
Si      10.03964951       2.19163602       0.36235816      -1.60455080       1.51466019       1.42428304
Si       2.35498032       3.54906369       0.59318783      -1.79174768       0.36182902      -1.87193032
32
Lattice="10.953064772841406 2.0414019778866393e-15 2.391532347210215e-15 2.041341254603979e-15 10.953064772841403 9.315213603459425e-16 1.1956332070866667e-15 4.658151368277192e-16 5.476532386420701" Properties=species:S:1:pos:R:3:momenta:R:3 pbc="T T T"
Si       6.66096142       4.83921551       1.45185545       0.81744578      -2.15128181       0.29333159
Si       1.50762788       6.47995052       0.27941281       0.99462411      -1.23481241       2.81113759
Si       0.57949229       7.91831483       1.98685969      -3.85865531      -6.31860778      -3.65774826
Si       0.61913784       6.10282175       3.56762075       3.28857920      -4.93652487      -2.88524485
Si       6.37852816       7.58912100       3.92037058       3.43667948       2.54205397       3.54629600
Si       1.08002691       4.65952558       1.72423920       1.41015639       0.73706841      -0.63985892
Si       8.43944875       0.51167761       4.71462383      -3.95378672      -1.49292872      -1.48709412
Si      10.67230662       0.21661887       2.18240142       6.99940990      -0.46985234      -1.53951439
Si       3.72512226      10.91045447       2.72717259      -5.35011472       2.27956065      -0.40889236
Si       7.17424140       2.18093394       3.49633631       4.90326369      -0.84648410      -0.66084178
Si       1.29837664       9.59364061       4.82069637       2.07016442      -3.34472746      -3.53174528
Si       5.69111948       1.01767199       1.92581535       1.74124187       3.36377002       4.07636059
Si       5.54926749       8.99343302       0.14596315      -2.71345213       1.47857058       2.25682703
Si       9.73440300       9.24867942       4.95612780       0.40994123       3.98066159      -7.44011808
Si       3.78532133       6.54538218       0.74712581      -2.32828895      -5.55841312      -2.89946895
Si       2.99806302       3.33050670       2.11447055       4.52334894      -4.95672453       1.56816078
Si       8.47889031       3.96403092       2.58586401       4.87789834       6.28461299      -0.21212585
Si       7.19402891      10.45569624       0.94133763      -1.96409394      -2.04056908       4.36745566
Si       2.92492001       1.81699318       3.92466777      -3.94115067      -0.04414764       5.11707474
Si       0.78848341       0.89231305       4.18163378      -5.70209101      -0.65478315       0.78861340
Si       4.53276734       5.04302007       2.38561223       0.63569771       3.18173317       5.63022998
Si       5.15944286       5.69898599       4.50861548       1.09836563       0.56720736       0.50853166
Si       8.69536164       7.61029643       3.64132691      -1.94517242       2.27743551      -2.15331442
Si       3.66294376       9.10311394       4.15892310      -0.13353987      -2.21888769      -0.66910229
Si       6.00853464       3.58765877       5.07219221      -1.42845253       2.77243026      -5.40304228
Si       9.25651924       9.20705900       1.84983309      -2.58076706       0.10101011      -0.74872943
Si       1.72210812       9.99299081       1.63932023      -1.83423085       2.31327005       0.24902569
Si       9.44321111       5.34024876       4.26182996       3.96563774      -0.34081898      -4.21649565
Si       9.99853164       3.90847242       0.76936224      -1.97783741       0.02887992       1.55517780
Si       4.78285368       8.12061709       2.20739833      -0.63834780       4.68990466       0.60721912
Si      10.21803313       1.61047627       0.32116599      -3.47188844       4.20542546       4.02603160
Si       4.23643446       2.29381256       0.39213214       2.64941537      -4.19403102       1.15186366
