25
Properties=species:S:1:pos:R:3 pbc="F F F"
H        0.88778931       0.33340363       4.44622323
H       -3.19931300      -2.73653905       1.35951720
H        0.16912021      -3.20136359      -2.70114119
H        2.04187961      -0.83816431      -3.37644446
H       -1.53543723      -4.51775601      -0.53052546
H        1.58805675       3.62981216      -0.47568846
H       -2.99773274      -2.81435138      -2.73780246
H        0.81319018       1.83801264      -4.34754106
H        1.21956149       2.77859465       2.48003652
H        2.84181117       0.96621845       0.53755154
H       -1.04115921      -0.55127469      -3.66918550
H       -3.00511264       0.32997202       1.23608071
H        3.70055663       1.23716584       3.48988613
H       -0.09208149      -2.95172886       1.71361019
H        0.06771452       0.12537225       1.50670448
H        2.50550720      -1.45113616       2.50754356
H        3.22554796       1.83830504      -2.39383474
H       -2.66161937       1.14529419      -1.71304762
H        0.43392582       0.94024010      -1.40639875
H       -0.84326048       3.56182658      -2.42759116
H       -1.19856548       2.73263204       0.52113758
H        1.70918400      -1.71421309      -0.46016129
H       -1.32452976      -1.41306950      -0.66906810
H       -1.71712621      -1.18520421       3.63200573
H       -1.58790726       1.91795126       3.47813339
25
Properties=species:S:1:pos:R:3:momenta:R:3 pbc="F F F"
H       -0.57125920       0.83125804       5.05838820       0.29264851       0.16278661      -0.16932708
H       -2.76980305      -3.09109704       1.29279533       0.00208519      -0.11709757      -0.12997732
H        1.51108003      -2.29819845      -1.45800181       0.08116052      -0.20095680       0.01418038
H        2.24254944      -0.80453754      -4.09173740       0.09489607       0.08470533      -0.04114071
H       -1.01388091      -4.20088050      -1.16113008      -0.03594186       0.21290329      -0.21300383
H        1.72746722       2.70365749      -0.30090633      -0.12645978       0.03134725       0.21006371
H       -3.67458054      -2.42296176      -1.76005823       0.25119117       0.11644819       0.09960942
H        2.42084212       2.45744723      -3.33431353      -0.11764937      -0.00374063      -0.14818703
H        0.69779793       2.10990963       2.58062062      -0.03914883       0.05135126      -0.24947107
H        1.15077735      -0.09788627       0.62363069       0.13064661      -0.09412040      -0.12142853
H       -0.89345249      -1.93260018      -3.44940530       0.13865622       0.42372233       0.12579797
H       -3.77026812      -0.11703975       0.58603354      -0.07510269       0.19327882       0.21281013
H        3.61280505       1.15534853       1.74221383       0.14195062      -0.13735381       0.46718359
H        0.43858386      -2.95951266       1.43196369      -0.14713942      -0.03570719      -0.03249997
H       -1.26894605       1.63426089       0.14801398       0.00974151       0.03171500       0.03149252
H        1.67595069      -0.78090184       3.48171605      -0.10255033      -0.07103547       0.31473288
H        3.39358194       0.22708696      -1.34256674      -0.37534075       0.04075778      -0.13397616
H       -2.69812644       0.57782741      -2.38831242       0.12963500      -0.27844708       0.26227969
H        0.37520207       0.58005229      -2.20225114      -0.20369756       0.12570547      -0.06947196
H       -0.58277286       3.46841237      -2.20058053      -0.13160912      -0.01465418      -0.17295366
H       -0.56433206       4.44177538       0.94731493      -0.02008486       0.14958304      -0.17692550
H        3.44322070      -1.95787340       1.03332656      -0.09473158       0.09021821      -0.09231581
H       -1.23042433      -1.30161748      -0.52446989      -0.05397746      -0.21066464       0.15670087
H       -1.26971138      -0.53498037       2.41556717       0.19813771      -0.36146423      -0.32169809
H       -2.38230097       2.31305099       2.87214881       0.05268450      -0.18928058       0.17752559
25
Properties=species:S:1:pos:R:3:momenta:R:3 pbc="F F F"
H       -0.01093185      -0.89579443       4.28103863      -0.27439385      -0.14932619      -0.15550984
H       -2.91066255      -0.57859414      -0.00664773       0.01137233       0.08627786       0.03025645
H        0.27834419      -3.30162074      -3.03817183      -0.07171589       0.26384742      -0.08386159
H        2.43732358      -0.90274623      -2.87730465       0.09730501      -0.11184312       0.18787497
H       -1.29579028      -3.28997303      -0.21316438       0.22894030      -0.03926763       0.29164580
H        1.54548621       3.55310458       0.13895420      -0.12509901      -0.11993521      -0.05373219
H       -2.68316622      -1.97743776      -2.84664903       0.01900372      -0.21413087      -0.08961065
H        0.73445403       1.92657665      -2.62987431      -0.24441414       0.08796804       0.08612477
H        0.94842567       1.62192961       2.57122965       0.36045728      -0.28460468      -0.01789574
H        2.03173335       0.54360431      -0.20230177       0.11907616       0.00294262      -0.16443779
H       -0.36237892      -0.42724740      -4.53076227      -0.05343468      -0.07785703      -0.04917218
H       -3.58266312       2.51724227       0.19449300       0.06241162      -0.06996009      -0.15843480
H        3.96436368       1.68573374       1.77595634      -0.31470270      -0.07996646       0.07470814
H        0.52468983      -3.57116347       2.46951420      -0.28197868       0.39948302       0.25826914
H       -0.14818780      -0.92334699       1.32059556       0.08685060      -0.13128073      -0.05237921
H        2.62932758      -1.09992996       2.40453150       0.27022931      -0.08662542      -0.17073875
H        4.52611805      -1.10653431      -0.11203332       0.04020320       0.24958129      -0.24304426
H       -2.35591540       1.24444140      -2.53633349       0.18666985       0.00370872       0.15605887
H       -0.75852128       1.62679567       0.02694134      -0.02726387       0.11711959       0.03766349
H       -1.27561857       4.13889990      -1.44162610       0.01322253       0.03398330      -0.02341856
H       -1.16840324       3.92602545       1.85167656       0.27658936       0.00325271       0.22956749
H        1.79825545      -2.61160968      -0.29470514      -0.07170247      -0.08001571       0.04260936
H       -0.27840663      -0.77244425      -1.59652416       0.04030931       0.04479284      -0.12599867
H       -2.44319999      -2.27413582       2.63636567      -0.38952604       0.10208319       0.05642812
H       -2.14467578       0.94822461       2.65480154       0.04159076       0.04977255      -0.06297236
25
Properties=species:S:1:pos:R:3:momenta:R:3 pbc="F F F"
H        0.30668800       0.44666649       4.34938826       0.04505221      -0.11231906       0.11024966
H       -3.15298460      -0.85733586       0.70283666       0.07933013      -0.49859989       0.20166485
H        0.29428808      -4.29106576      -1.79373776      -0.12820884       0.17575658       0.04149467
H        1.95051171      -1.75012887      -2.65211399      -0.31206994       0.13011158      -0.15011325
H       -1.19624818      -3.47659313       1.23101450      -0.05429414      -0.12919326      -0.40440983
H        0.99741377       3.16437926      -1.24127436       0.06109117       0.14547195       0.03689320
H       -2.99472349       0.11273349      -2.46029418       0.35688440       0.18508552      -0.15112626
H        0.03272737       0.77768716      -3.08803054       0.16577641       0.09087375       0.50839892
H        0.81378363       2.23441967       1.77564537      -0.01481959      -0.10047986       0.01424066
H        4.24857676      -0.89748870      -0.52230374       0.14676555       0.30953160      -0.13076616
H       -0.83061883      -2.04368553      -4.10525597       0.01846585       0.11566032       0.10754396
H       -4.03462586       2.13324748      -0.08648404      -0.15839624      -0.11085940      -0.30141228
H        3.64234444       2.17080294       0.33683294      -0.00811335       0.06676850      -0.14512923
H        0.92074019      -2.63526076       3.52259035      -0.11291471      -0.40121537       0.41110162
H       -0.24833936      -0.65564723       1.65236673       0.26602587       0.06064624      -0.14470600
H        2.70823316      -0.25014225       2.26943941       0.00821009       0.00200908      -0.09694816
H        3.16880253       1.25843015      -2.73975954       0.15460703       0.01839074      -0.07047149
H       -1.21667825       1.27682928      -0.33495980      -0.27036447      -0.03121545       0.00939961
H        1.52112217       0.26148002      -0.48698417      -0.28823952       0.09918252       0.01376274
H       -1.99636468       3.18592555      -2.46353899      -0.06930422      -0.17385535       0.31193589
H       -1.50938921       4.06771000       0.62604218       0.06703481       0.13604465      -0.16908978
H        1.74124939      -2.63283771       0.41883035       0.14026378      -0.05152351      -0.01682118
H       -0.80016076      -1.58221251      -1.14906416      -0.11456749      -0.06743709      -0.01806650
H       -2.19090282      -1.54370388       3.69502854       0.09765416       0.05412779       0.02747828
H       -2.17544515       1.52579068       2.54378594      -0.07586896       0.08703740       0.00489604
25
Properties=species:S:1:pos:R:3:momenta:R:3 pbc="F F F"
H       -0.30535728       2.15234012       4.49583561      -0.16732617       0.02669876      -0.15646283
H       -3.10506073      -1.09562008       1.12992438      -0.11851186      -0.11591411       0.06049977
H       -0.12601380      -3.02030313      -2.77757801       0.15694751      -0.05905326       0.43183082
H        2.30872704      -1.42639114      -4.19233149      -0.13899281      -0.16390220       0.04210571
H       -2.38775600      -3.82926627      -0.52834386       0.15353785      -0.04011321      -0.10699968
H        3.23669382       2.90004455       0.45711806       0.06199475      -0.02771863      -0.23966559
H       -2.66566451      -0.99439955      -2.00608435      -0.33200908       0.11673778      -0.14451944
H        0.65701397       2.93616870      -1.49125545       0.04567593      -0.08994523       0.09982388
H        0.24513900       2.94651751       1.60073984       0.02635598      -0.12791412      -0.03539231
H        4.31175107      -0.16711898       0.68967782       0.13984400       0.02060196       0.09357203
H        0.22234692       0.05991720      -2.55115026      -0.02705780       0.08736416       0.31531560
H       -1.37322020       1.06151281      -0.14835271      -0.12261671       0.00519781      -0.08269807
H        2.36180895       1.05782310       3.02280761       0.09398868      -0.21928477      -0.25562502
H        0.80869939      -4.41488585      -0.00281156       0.17073362      -0.11147546       0.11277859
H       -0.47045455      -0.14951012       2.51359522       0.12659004       0.13959096      -0.06558037
H        1.93145579      -1.99851405       1.88389398       0.27965566      -0.00563686      -0.19958860
H        3.18980414       0.95296482      -2.17967138      -0.01240074       0.05165076       0.19283678
H       -4.29179157       1.40977758      -0.48526314       0.02520858       0.40231382      -0.00968811
H        1.47275920       0.53339333       0.22357075       0.27705044       0.17366298       0.25168547
H       -2.16689121       2.08182670      -2.83398874      -0.34797660       0.02850984       0.20354992
H       -2.17960646       3.91849091      -0.20511675      -0.04389515      -0.06971033      -0.08474146
H        2.44958289      -1.97040632      -1.19225043      -0.11199148       0.01557129      -0.08346925
H       -0.37920915      -1.69621212      -0.11781160       0.31384761      -0.23559967      -0.32966031
H       -1.02667660      -3.23849368       2.34908857      -0.32528348      -0.04304568       0.02240888
H       -2.71808013       1.99034395       2.34575789      -0.12336878       0.24141341      -0.03231640
25
Properties=species:S:1:pos:R:3:momenta:R:3 pbc="F F F"
H       -2.38105461       0.12212627       4.38842935       0.21927832       0.06332522       0.13936548
H       -2.85389745      -0.87977674       1.54401416      -0.11201447       0.12992402       0.13684114
H       -0.13338695      -3.76157771      -1.70138802       0.00057791       0.05938843       0.16760619
H        0.25545436      -0.73210673      -2.44138067      -0.13070314       0.01598867       0.23983067
H       -2.09700342      -3.87998247       0.83144683      -0.13418757       0.23213340       0.09186575
H        3.26460042       3.03341911      -0.53609410      -0.06197043       0.17211611       0.04172496
H       -2.54985469      -1.61294888      -1.47297001       0.11136400      -0.03569121       0.28058605
H        0.67142395       1.11723562      -4.82067189      -0.24121748      -0.07532713      -0.02521230
H        0.34514274       3.21242087       0.91445056       0.08729312      -0.27800815      -0.08233920
H        4.53820135       0.09056385       0.20619913      -0.06799757      -0.13952509       0.15024932
H       -2.10861656       1.17356102      -3.16383933      -0.08314982      -0.47340906      -0.00637076
H       -1.25441564       0.90993179      -0.31758199       0.11894638       0.05325679      -0.30046288
H        2.85524120       1.78763379       2.39054114      -0.03536119      -0.06936597      -0.28650164
H        1.15215851      -4.21840998       1.23446094       0.04172044       0.23923618      -0.03347888
H       -0.04375443       0.57882938       2.49505189      -0.01993911       0.21100824      -0.17459380
H        2.35652602      -1.38937503       2.15311105       0.28567165       0.06169738       0.03312085
H        3.04766720       0.61110393      -2.68153740       0.18107280       0.05992928      -0.13730275
H       -4.19485042       1.04151456      -0.63980993       0.20083506      -0.21322606      -0.09662294
H        1.63543392       0.59838879      -0.05508766       0.04711071      -0.14654012      -0.04935439
H        0.55886796       2.54488142      -2.12491893      -0.21685316       0.05213728       0.17542886
H       -2.23585923       3.62157190      -0.98855490       0.11889139       0.05734605      -0.08467898
H        2.56059142      -2.17667597      -0.90856598      -0.22064711       0.06515172      -0.10783479
H       -0.14170892      -1.68144920       0.43336354      -0.19976157      -0.07075456       0.11785297
H       -0.62523422      -2.36760558       3.29481942      -0.20464592      -0.10636352      -0.05903726
H       -2.62167251       2.25672599       1.96651283       0.31568673       0.13557213      -0.13068168
25
Properties=species:S:1:pos:R:3:momenta:R:3 pbc="F F F"
H       -0.11102892       0.74708071       3.09382041       0.11550188      -0.15152727      -0.01792184
H       -2.68990047      -0.83125649       2.15009411       0.26129819      -0.03394445       0.11098581
H        0.10658636      -3.19665402      -1.52243202       0.19802455      -0.17163846      -0.08176885
H        1.93956516      -1.66098856      -3.69899493      -0.06878206       0.05228438       0.22262546
H       -1.72571798      -3.73170497       1.08991692       0.08465812      -0.03004938      -0.09926574
H        1.67494814       1.18036257       0.51499323      -0.21035964       0.37622904      -0.10084947
H       -2.43586531      -1.40472890      -0.94914930       0.01437525       0.29058456      -0.39547266
H        0.46107603       1.21279012      -4.37614346       0.18428662       0.11423913       0.04119666
H        0.03003220       3.53069507       1.60159966      -0.06743518      -0.22950854      -0.19379028
H        4.57327555       0.47934487       0.75727215       0.14372349      -0.15922939       0.33358365
H       -1.29836808      -1.49219008      -3.91141916      -0.21552065      -0.22820360       0.19031393
H       -4.26364297       1.01788194      -0.01695425       0.13838896       0.11607908      -0.30766047
H        2.72844350       2.03763516       3.18084585      -0.30977415      -0.34995535      -0.09407502
H        1.50499247      -3.88395923       1.33445231       0.05651020       0.11871258      -0.06189495
H       -1.31993300       1.17600707       0.31094015      -0.04260067       0.09037151      -0.18152248
H        2.49062746      -1.04601236       2.56941342      -0.29049813       0.16131258       0.05000332
H        2.97101056       1.04347912      -2.26223864      -0.15531545      -0.06035105       0.23317389
H       -2.27651939       1.30839197      -2.57610447       0.21195136      -0.14385097       0.19566945
H        0.26296450      -0.16314301      -1.76798949      -0.00163937      -0.07679160      -0.13039683
H        0.29718609       2.89665696      -1.63986264       0.32590870       0.20064429      -0.16070286
H       -2.54987921       3.76213017      -0.41930438      -0.08892882      -0.05955088       0.17395869
H        2.68301392      -1.61583068      -0.57570120      -0.25700239      -0.03638363       0.15804730
H        0.03553283      -1.34791490       0.89541907      -0.02847052       0.18529665      -0.11299784
H       -0.25983370      -2.39082358       3.65367412      -0.10167358       0.03217833       0.06952715
H       -2.82856575       2.37275106       2.56385251       0.10337329      -0.00694757       0.15923397
25
Properties=species:S:1:pos:R:3:momenta:R:3 pbc="F F F"
H        0.91532689      -0.91943860       4.99228558      -0.02635305      -0.15918792       0.22328858
H       -3.35943459      -1.12733814       1.41778580       0.07344993      -0.32558213       0.14485037
H       -0.79502244      -3.74957922      -2.30845883      -0.35470766       0.17463331       0.09362209
H        1.26094012      -1.33867168      -2.51167982       0.01329210       0.08308059      -0.13049286
H       -1.83083853      -3.87404405       0.73284686      -0.23843069       0.07132016       0.08188890
H        1.20213719       2.97674233       0.27495111       0.09724638       0.30295925      -0.00356133
H       -3.70916025      -2.51195143      -1.54660341       0.26038780      -0.16672539      -0.30765159
H        0.95551700       1.01869342      -4.52418063      -0.12391035       0.15756603       0.06030370
H       -0.79173298       3.69149244       2.58720075       0.04622888      -0.02826843      -0.11408699
H        3.80097376       1.33323311       1.09387178      -0.03032216       0.07963334       0.09143285
H       -1.66751938      -0.91847036      -3.57803361       0.01978386       0.06247245       0.17333693
H       -1.35298116       1.18357523       1.03430651       0.03056601       0.04679531      -0.11726591
H        1.18918369       1.30970378       2.90912460      -0.22184166      -0.16922466       0.19981019
H        1.22183679      -3.08218506       0.11412862       0.15425551      -0.06679437      -0.30878879
H        1.29026496      -0.02803055       0.24235099       0.31108381      -0.24050410      -0.15231079
H        2.75009704      -1.42448014       2.43992620      -0.02922895       0.15587993       0.01162384
H        2.76089122       1.37827744      -1.96250899      -0.01919977       0.00277668      -0.32403978
H       -3.35181734       0.67373425      -1.27401148       0.10375378      -0.03543791       0.15220018
H       -0.39548872       1.29980864      -1.86515888       0.03556175      -0.02871274      -0.06481176
H        0.95432437       3.83860446      -2.71511771      -0.03939195       0.23192833       0.19772161
H       -1.65727683       3.75724851      -0.58969568       0.12827963       0.06653051       0.23208533
H        3.80929795      -1.36517464      -0.62319020      -0.36466563      -0.23054855       0.00404303
H       -1.16090408      -1.31490951      -0.63636423       0.23489938       0.15443304       0.11138611
H       -0.38605432      -1.52479671       2.29394845      -0.11760782      -0.04960350      -0.01016840
H       -1.65256035       0.71795648       4.00227620       0.05687085      -0.08941923      -0.24441550
25
Properties=species:S:1:pos:R:3:momenta:R:3 pbc="F F F"
H        1.85755295       1.06425039       3.81385229      -0.10655951       0.06919882      -0.31815960
H       -2.34643459      -1.23407193       1.76454921       0.07426428       0.08932205       0.13082151
H       -0.07633783      -1.63652536      -2.91281600      -0.01627334      -0.26780281       0.39192096
H        2.49861297       0.06634830      -3.81984785      -0.06230292      -0.11859868       0.29445475
H       -1.16638560      -4.12241055       1.83386548      -0.11469996       0.01638430       0.35473134
H        2.29588000       2.94252549      -2.29922848       0.04652318       0.15372216       0.02572358
H       -2.56342279      -2.72623692      -1.01467806      -0.15520520       0.00675098      -0.08228883
H       -0.41862404       1.48164968      -3.34070833       0.21164435      -0.06179636      -0.17896290
H       -0.11526055       3.34671427       2.62236642      -0.02722379      -0.03494926      -0.01844290
H        2.45292575       2.39087473       0.90280085      -0.10406706       0.11843770      -0.10187260
H       -3.04440972      -0.48257790      -3.36644142       0.05294586      -0.13239643       0.06618865
H       -4.47238837      -0.19187138      -0.40321384       0.19929113      -0.03174226      -0.13136496
H        2.79337387      -0.72764694       1.34431392      -0.26328601       0.01385516      -0.12289957
H        0.21706539      -2.09846368       0.11879014       0.11035479       0.08996573      -0.21723787
H        0.06313085       0.60173885       1.50102341       0.40833664      -0.10741579       0.08689501
H        2.22203137      -3.78854981       1.55923781      -0.32252018      -0.36326404      -0.02466588
H        4.30085656       0.67358928      -1.11964038       0.02084350       0.16972288       0.00136437
H       -3.16144246       2.40328934      -1.85509456       0.30223332       0.09582193      -0.14110117
H        1.35044914       0.39197442      -1.11597532      -0.16126409       0.05314394      -0.08536916
H       -0.32833352       2.90438407      -0.51317157       0.13934775       0.27353561      -0.22691670
H       -2.69222366       1.88402433       1.32242347      -0.10273367      -0.00910850       0.50951360
H        2.84660406      -2.19208741      -1.45864187      -0.04932271       0.16330524      -0.06254447
H       -1.56200496       0.10427474      -0.87805612       0.03128838      -0.04393019      -0.23074110
H        0.44074655      -1.80009004       3.23535729       0.05941601      -0.11735612      -0.15706741
H       -1.39196137       0.74489404       4.07893351      -0.17103076      -0.02480606       0.23802135
25
Properties=species:S:1:pos:R:3:momenta:R:3 pbc="F F F"
H        0.78032001      -0.97544880       4.64898865      -0.43250910       0.18361528      -0.08135314
H       -3.74153080      -1.50900121       1.46158417      -0.01504307      -0.11973615       0.10778559
H       -0.65647029      -1.96887950      -2.75620860       0.25990086      -0.04293613      -0.20748640
H        2.58088088      -2.37126699      -2.87185319      -0.10104847      -0.18736023      -0.24181294
H       -2.25986887      -3.60758585      -0.49795899      -0.02559930       0.11985705       0.06737014
H        1.48841358       2.66786997      -2.03953097      -0.21808833       0.09231885       0.11469224
H       -3.57880491      -0.89288510      -1.73432935      -0.14963647      -0.26401453       0.09299567
H        1.22264620       0.25084402      -4.15538754      -0.03881772       0.30434544       0.02622469
H        1.24844420       1.84047987       3.28361963      -0.11504918       0.11210517      -0.25118060
H        3.07410763       1.51160399       0.56720803       0.27033424       0.07738467      -0.03226366
H       -1.18782137       1.07071127      -2.27394940       0.13468853      -0.02686882       0.12968501
H       -3.06811815       1.41135985       0.42922587      -0.13612606       0.15902619       0.08854354
H        3.77292565      -0.07437943       3.17921503      -0.05540378       0.24929083       0.18260519
H       -0.94924542      -2.80182692       2.37664963       0.03406916       0.05248098       0.13438103
H        1.27755359      -0.79893758       1.70441128       0.04193999      -0.06766211       0.03698765
H        3.75329240      -1.52964374       0.04951258      -0.03805304      -0.31136806       0.07213464
H        3.94253005       0.57349776      -2.39868593      -0.17338299      -0.25416813      -0.07015922
H       -4.02623134       2.19688934      -2.37183049       0.04105032       0.08165738      -0.08287583
H        1.34685633      -0.23775300      -1.22205206      -0.07872804       0.19133903      -0.14253034
H       -1.66200014       3.81987917      -0.94484605       0.22126232      -0.21224708      -0.08458811
H        0.03314552       1.80124665       0.51875834      -0.00117520      -0.18513393      -0.27534794
H        0.89681150      -3.12234166      -0.27225858       0.35984768       0.18116853       0.08933500
H       -1.19587971      -0.89300789       0.05017562      -0.01959182      -0.09641292      -0.12807714
H       -1.43774892       0.27193238       2.83698324       0.08340177      -0.16707529       0.36026844
H       -1.65420765       3.36664339       2.43255907       0.15175772       0.13039398       0.09466649
25
Properties=species:S:1:pos:R:3:momenta:R:3 pbc="F F F"
H        1.51691041      -0.52831509       1.61104263       0.12851685       0.17826305       0.02458563
H       -2.76169042      -3.13500847       1.75385815       0.08033925      -0.44351103       0.18211615
H       -0.30367164      -2.36979844      -2.79013590       0.06904724       0.01915844       0.14636183
H        1.18728234      -0.04687390      -1.45090334       0.06039646      -0.08384248       0.21652939
H       -0.79317508      -4.56051474      -0.44529350      -0.08909761      -0.01519986       0.03508453
H        2.19786293       2.27929194       0.40460550       0.09717945       0.41262031       0.23844035
H       -3.19813213      -2.58240882      -1.38799782       0.30770099      -0.15658178       0.06553768
H        0.25793209       0.82491102      -4.18368221       0.08612127       0.11309448       0.12003106
H        0.69320998       1.99483299       3.15301251      -0.16414849       0.28898240      -0.34239087
H        3.95060274      -0.24748521      -0.24778824      -0.13260250       0.06345364      -0.07017998
H       -1.88006962       0.22188992      -2.03550865       0.01464449       0.05410028      -0.06910252
H       -3.37936432      -0.11418208       0.68364342       0.21763369      -0.02809763      -0.46201674
H        3.88413722       0.95826553       2.67697146      -0.05542263      -0.01625069       0.07295189
H        0.44986140      -3.32657428       2.27177246      -0.23777265       0.11931778       0.14653213
H       -0.64063106       1.22983677       0.55441638       0.17581084      -0.01797407      -0.10277389
H        3.77438068      -2.43753187       2.03939268       0.12109051       0.17985218      -0.09961640
H        3.02980179       2.01422552      -2.59869020       0.03978960      -0.03302118      -0.14474590
H       -2.84996632       2.84867701      -0.61242288       0.16376750      -0.09932104      -0.09093002
H        0.10695698       2.86221267      -1.84038588      -0.06298355      -0.18635718       0.13918875
H       -2.28736587       2.72049983      -3.74559787      -0.04555383      -0.17879558      -0.19203471
H       -0.34823250       4.15397622       1.01822403      -0.01141484      -0.01523545       0.02614996
H        1.94051674      -2.84073256      -0.47064203      -0.17440844      -0.21000315      -0.14387433
H       -0.79687967      -1.64840461       0.10251752      -0.15653284      -0.12580308       0.17251065
H       -1.24898062      -0.59722834       2.95103172      -0.15120209       0.12589146       0.21145692
H       -2.50129604       2.32643902       2.58856005      -0.28089868       0.05526019      -0.07981157
25
Properties=species:S:1:pos:R:3:momenta:R:3 pbc="F F F"
H        1.39919033       1.63145689       2.95853229       0.29452977      -0.26800814       0.14181624
H       -3.40147734      -2.22812299       2.10092515      -0.15134178       0.02885154       0.13420828
H        0.39340381      -2.30258588      -1.50947624      -0.04791769       0.04773964       0.09736140
H        1.11336833      -0.69490233      -4.14418794       0.19134950      -0.07100697      -0.27662312
H        0.56005302      -5.11726541      -0.33052179       0.10265050      -0.11235408       0.00644248
H        2.17799960       2.22419354      -0.03767396      -0.35727307      -0.28659624      -0.42189696
H       -2.26949855      -3.68014445      -0.75768919      -0.07164078       0.10925535      -0.22171669
H       -0.83825575       1.90596519      -4.25742892       0.17222629       0.06102829      -0.08931553
H        0.68290240       4.39667302       1.61975778       0.16153458      -0.14117423       0.09198946
H        2.92310916      -0.46840624      -1.49714946      -0.11330153      -0.17331218       0.10640349
H       -1.92861127      -0.99155790      -3.14045554      -0.10830155       0.18058014      -0.01822130
H       -3.62226921       1.03919090       1.73425650      -0.17175010      -0.07946448       0.07976158
H        3.79420265      -0.00269560       1.53865682       0.25660365       0.20044358      -0.03648599
H       -0.41329781      -2.96597836       1.62148732       0.03478129       0.21626940       0.20191834
H        0.93200319      -0.42334177       0.82287584       0.10192399       0.37593908       0.23321752
H        1.75280495      -1.53877899       3.46168731      -0.16925782      -0.12310865       0.12345376
H        2.23414134       2.17074083      -3.21202015       0.05227311      -0.29486130       0.11144649
H       -2.72523639       1.77284804      -1.65478753      -0.20467396      -0.01011976      -0.19076895
H        0.11006530       0.71533850      -1.71987051       0.11687661       0.15928289       0.01132880
H       -0.09738860       3.71733821      -1.61189029      -0.10543202       0.05956786      -0.04579813
H       -0.88146640       1.97621425       0.80192776       0.16339758       0.13197252       0.11248856
H        2.61243472      -2.88367926       0.63714016       0.10156442       0.12092161      -0.20820325
H       -1.92759331      -0.76110527      -0.06515718      -0.10505929      -0.17138177       0.12090740
H       -1.12884738      -0.26623000       3.00632584       0.09992132       0.08387027       0.06229656
H       -1.45173679       2.77483506       3.63473595      -0.24368301      -0.04433435      -0.12601043
25
Properties=species:S:1:pos:R:3:momenta:R:3 pbc="F F F"
H        1.23858277       0.69544670       4.02568133      -0.09363605       0.45396791      -0.28870580
H       -3.78733337      -1.01713028       1.01893536      -0.25097239       0.35042182      -0.04080948
H       -0.53417015      -4.04448678      -2.36754980       0.23598106      -0.02613738       0.08446812
H        1.64572499      -2.01865785      -2.99759161       0.02554903       0.06766936       0.29152134
H        1.64351078      -4.01756342      -0.17596890      -0.04155500       0.01748687       0.23372134
H        0.57487470       3.33602670      -0.35813602      -0.06071031       0.16908769      -0.07873764
H       -2.95038313      -2.54876065      -1.38154611       0.12904668      -0.20757168      -0.05842357
H        1.06495792       0.82879102      -1.99856598      -0.23777821       0.28041458      -0.01622720
H        2.41465509       3.08660822       2.28688973      -0.21702806      -0.48260798       0.18616608
H        3.49269334       1.90075511      -0.39469804       0.11135382      -0.03621691       0.18811951
H       -1.29252378      -0.69193248      -3.14568773       0.27515997       0.14874914      -0.03092743
H       -3.58415632       1.81014341       2.08859543       0.02512301      -0.11719987       0.24819409
H        3.78994875       0.18255723       2.29126185      -0.13229015      -0.04308768      -0.05950058
H       -1.54711085      -3.32430889       1.41059809       0.08123820      -0.06475736      -0.00820652
H        1.11693818       0.68644212       1.01486279       0.08754907      -0.27256981      -0.27575019
H        1.36716817      -2.05052563       2.23286485      -0.05503537      -0.09531052      -0.23013199
H        3.90692570       0.15364484      -2.96005097       0.09976737       0.00258236      -0.24772069
H       -3.94584546       0.40245841      -1.87221700       0.16398007       0.09355675       0.06065703
H       -1.60009138       0.93462455      -0.11538875      -0.16811400      -0.20007117      -0.03827814
H       -1.50141424       2.43936580      -2.70269770       0.28936536      -0.06157037      -0.21025116
H       -2.46460181       3.82794662      -0.01307440      -0.07145770       0.15330319       0.08228004
H        2.98900505      -1.22529959      -0.35658379      -0.04751794       0.01423040      -0.08620085
H       -0.10400746      -1.59057616      -0.50549044       0.15046345      -0.00408343       0.12802113
H       -1.25111658      -0.42915914       2.57881336       0.00956021      -0.13588540       0.20833370
H       -0.68223093       2.67359015       2.39674445      -0.30804211      -0.00440052      -0.04161115
25
Properties=species:S:1:pos:R:3:momenta:R:3 pbc="F F F"
H       -0.32923889       0.12892314       4.11534321      -0.15836986      -0.28686921      -0.06134906
H       -3.41819896      -2.03457412       0.09477330       0.14073832       0.33521278       0.01040152
H       -0.78907071      -2.93536982      -1.43685003      -0.05101297       0.12968709      -0.00493538
H        2.23867747      -3.07533558      -2.38219397      -0.16593135      -0.03596285       0.10661656
H       -1.65868979      -4.61143331       0.96074305      -0.10088868      -0.18417962      -0.02303859
H        1.21508656       3.83859600       0.79844193       0.10410908       0.02437141      -0.04888329
H       -2.93141868      -1.16159464      -3.02529639      -0.16826068      -0.24328229       0.09006883
H       -1.79267002       1.91265038      -2.99385523      -0.18470779      -0.04246527      -0.32036017
H        2.15821227       2.08012009       3.41539701      -0.04915595       0.13681874       0.07871919
H        3.22900266       1.19026001       0.52418690      -0.11391371       0.00482560       0.17643208
H        0.25049720      -0.64882923      -3.28494494       0.23908846       0.34438717       0.31585558
H       -2.68047519       0.59201322       1.93345130       0.13158662      -0.11048722      -0.33356457
H        4.11097118      -1.93210029       0.07363335       0.11903648       0.06800951       0.32997234
H        1.45527293      -3.77641120       0.68564032       0.15895618      -0.01300747      -0.08464729
H        0.30023336       1.05541708       1.35351601       0.04304905      -0.09961432      -0.18844615
H        2.18734772      -1.06401776       2.49050088       0.10607486       0.12494687       0.10717313
H        3.32709674      -0.05969663      -2.44748467      -0.44255452      -0.34965891       0.19643395
H       -4.15519840       0.99640812      -0.91355154       0.15614898      -0.02485434      -0.40562315
H        0.96676452       1.80528180      -1.53855143      -0.30408766      -0.04427324      -0.11783830
H       -0.22048101       4.56589339      -2.01009291       0.05476311      -0.34317609      -0.02416166
H       -1.73956222       2.87712069       0.02883526      -0.02806842       0.13756707       0.06794891
H        1.34481244      -1.01673884      -0.43810229       0.01504417       0.27931206       0.06123341
H       -1.38232562      -0.03195577      -0.76879721       0.15682262       0.10283013      -0.13730884
H       -0.73353583      -1.80035510       1.66808656       0.15939824      -0.01337623      -0.06365070
H       -0.95310974       3.10572837       3.09717150       0.18213542       0.10323864       0.27295167
25
Properties=species:S:1:pos:R:3:momenta:R:3 pbc="F F F"
H        0.38401602       1.57783479       3.52067553       0.07454274       0.01715569      -0.07038330
H       -1.98950755      -2.93163250       1.57618587      -0.04537922       0.21923675       0.13860513
H        1.85397701      -3.47089702      -1.93241769       0.00249057       0.10814383       0.09004781
H        2.20518943      -0.31541594      -1.96096645       0.00187922      -0.28282665       0.02536235
H       -1.28495279      -4.08708642      -1.35818286       0.10799862      -0.01978236       0.02308987
H        1.80264508       2.75346248      -1.30976282       0.17719412       0.21168537       0.22996126
H       -2.64100072       0.86536951      -3.37668673       0.01605835      -0.00258659       0.23349371
H        0.49443496       1.45154229      -3.96673898      -0.30460884      -0.27765150       0.28885067
H        2.56499698       3.22402581       1.79658528      -0.01970868      -0.10523678      -0.19336489
H        1.43458720       0.64817642       0.86278660       0.09996219       0.04281669       0.03391417
H       -0.45526526      -1.53486005      -3.15970665       0.03590670       0.05918764       0.00911755
H       -4.38249663      -0.41647350       1.53159532       0.15612427       0.08561786      -0.10944920
H        3.37061529       0.28396365       3.06591536      -0.36410140       0.06474370      -0.26992661
H        0.93774399      -4.33720482       1.07285245       0.17223010      -0.19775260      -0.29425360
H       -1.43266688       0.08474390       1.55130603       0.35073662      -0.00732898      -0.13291851
H        3.08647292      -1.89899072       0.63530416       0.01024612       0.20193472      -0.09366128
H        4.24809988       1.07949535       0.02815235      -0.07533167       0.06947915       0.03106259
H       -3.22386760       1.84240492      -0.33551317       0.18421318      -0.07920368      -0.05409391
H       -0.56649009       0.84167403      -1.26020526      -0.26788376      -0.10288151       0.10832698
H       -1.21566303       3.57388807      -2.20823853      -0.26197163      -0.09290592       0.13289950
H       -0.49671592       3.02726863       0.85217289      -0.18720731      -0.10618860      -0.15182075
H        0.15663178      -1.77913526      -0.18434019       0.07645313      -0.10311540      -0.06180762
H       -2.75218685      -1.25543062      -0.99456819       0.11928425       0.11466523       0.07178883
H        0.79802818      -1.63074290       2.80624166      -0.29186694       0.26060162       0.09118934
H       -2.89662544       2.40401989       2.74755402       0.23273928      -0.07780767      -0.07603007
25
Properties=species:S:1:pos:R:3:momenta:R:3 pbc="F F F"
H        0.80992466       1.71636113       3.88347657       0.16116075       0.01910536      -0.07915700
H       -2.47016833      -1.90510461       2.23785248      -0.21942526       0.05790085       0.14186032
H        1.04011863      -4.49466083      -1.07654713       0.05404253      -0.04735586      -0.07910198
H        2.54370468      -2.32945327      -2.68265525      -0.05170680       0.01733461       0.04980886
H       -1.74385491      -3.57443819      -0.27916488      -0.07573192      -0.02481395       0.17419854
H        0.01782753       4.32130541      -0.65297014       0.08722410      -0.11409180      -0.04799436
H       -0.62535233      -2.27072135      -3.02957449      -0.03748503      -0.15225048       0.19582429
H        1.30269334       0.30607299      -3.60757614      -0.10300441      -0.14825031       0.05250129
H        1.77431987       2.35450637       1.05363876      -0.09847006      -0.10129884      -0.04661657
H        3.00998509       0.17311225      -0.84303441       0.00766193      -0.16127534      -0.07740101
H       -1.83007756       0.55301973      -3.49981628      -0.08938976       0.06829507      -0.11444108
H       -3.58584040       1.02514579       1.40928592      -0.08005361       0.01601051      -0.00218667
H        2.23896764      -0.56875055       2.11235662       0.04897243      -0.25942701       0.29338844
H        0.47444717      -3.29493423       1.93166344      -0.01550438      -0.08477503      -0.02153838
H       -0.57407480       0.26722688       1.58985919      -0.17593260       0.27736622      -0.08902067
H        3.25708043      -2.82541323       0.31767993      -0.11641052      -0.09900105      -0.04398087
H        2.43708058       2.92333272      -2.04954408      -0.00815240       0.17315414      -0.15379985
H       -2.61795540       2.58346413      -1.09769787      -0.09269428       0.23902235       0.15862682
H        0.03907740       1.28986813      -1.12344332       0.34797611      -0.02754138      -0.10129007
H       -0.29603824       3.17582398      -3.50135801      -0.04876843       0.43700820      -0.16122177
H       -1.28568965       3.12520147       1.83871787       0.17786189      -0.01175737       0.05832779
H        0.60329867      -1.53955156      -0.44313967       0.23668631       0.08195776      -0.16379226
H       -2.31928792      -0.64693969      -0.76795053       0.02117222       0.20520423       0.23186090
H       -0.01745914      -1.28149606       4.17742125       0.11329837       0.01266963      -0.00449252
H       -2.18272701       0.91702259       4.10252015      -0.04332717      -0.37319049      -0.17036218
