16
Lattice="1.7439050659039483e-16 5.47748410970072 5.47748410970072 5.47748410970072 2.9140779775007323e-16 5.47748410970072 5.47748410970072 5.47748410970072 3.8774317075040437e-16" Properties=species:S:1:pos:R:3 pbc="T T T"
Si       6.40986431       2.02767910       6.51046975
Si       1.65510398       5.78869015       5.07586233
Si       4.53989118       2.97963318       3.89304414
Si       8.60321333       9.62838530       9.39671175
Si       4.75944404       5.20464075       7.71997347
Si       3.71466915       6.55342543       6.09108163
Si       4.86168680       7.79602196       4.44994964
Si       8.27073029       6.54401301       8.58325501
Si       8.10441205       7.54925980       6.42279796
Si       6.33273866       4.15624069       2.77496261
Si       6.40551206       9.11563058       5.92014601
Si       4.55383186       3.39867300       6.19569754
Si       6.44110182       6.54367721       3.15573090
Si       8.52510454       6.56945080       4.28800023
Si       3.79368945       4.58075330       2.41030111
Si       2.85017207       3.32204894       0.70793617
16
Lattice="1.7439050659039483e-16 5.47748410970072 5.47748410970072 5.47748410970072 2.9140779775007323e-16 5.47748410970072 5.47748410970072 5.47748410970072 3.8774317075040437e-16" Properties=species:S:1:pos:R:3:momenta:R:3 pbc="T T T"
Si       4.86441540       1.66346881       5.83203511       0.90647700      -1.35596215       5.28241951
Si       6.34245051       5.75421985      10.06652133      -1.73061101      -3.77664488      -5.01652092
Si       3.85871209       2.08831668       2.08699305       1.35701001       0.22323439       2.82736572
Si       8.55157486       8.96880293       9.56670796      -1.18888504      -1.34185310       0.90945793
Si       5.34497288       3.84143536       9.09239288      -0.02262203       1.49485441      -2.03886716
Si       4.64594859       5.45780313       5.94798630       1.59815592       0.11176662      -1.26158029
Si       6.43931599       7.56518828       4.71109999      -1.02023006       2.64275933      -1.01040307
Si       7.61330627       7.01621666       8.58030039      -4.33608251       2.60281472      -3.22793681
Si       6.10116978       7.93659980       7.05602022      -2.76081754      -4.60102251      -1.90805104
Si       7.06012611       9.88133027       8.00762937      -0.98096317       0.11416825       4.56132783
Si       2.50037081       4.59726185       5.79985660      -0.37781219      -1.08659440       3.66492323
Si       5.86546807       3.61868890       6.81055696       1.70897049       0.05949514      -1.93080783
Si       5.43131186       5.67256493       3.67465723      -2.51796015      -1.36352599       2.63954540
Si       3.22609141       2.58582856       4.41218655       6.04812401      -0.14778302      -2.82009277
Si       9.23886345       5.80134502       7.43583265       1.32631641      -0.72420695      -1.79275442
Si       8.21455159       3.83166804       6.42508011       1.99092986       7.14850013       1.12197470
16
Lattice="1.7439050659039483e-16 5.47748410970072 5.47748410970072 5.47748410970072 2.9140779775007323e-16 5.47748410970072 5.47748410970072 5.47748410970072 3.8774317075040437e-16" Properties=species:S:1:pos:R:3:momenta:R:3 pbc="T T T"
Si       5.89418487       3.02610030       6.70531358       0.80512520       4.45114176      -6.56241104
Si       1.55760545       5.30550415       3.99790509      -6.52595350      -4.32763220       0.20299412
Si       3.10890300       3.66131210       3.19507018      -2.70596434       0.04858357       5.97498973
Si       7.07114914       5.00314821       5.69258723      -3.31454903       0.21214831       0.95071383
Si       3.03875949       5.27159309       7.65386889      -1.40812998      -1.39827703       3.22047377
Si       2.60723310       2.02305034       1.51122797       2.13468771       7.02616426       0.45763758
Si       4.43222691       7.90140995       5.45370179       1.34384276       1.82368818       6.91797657
Si       7.40659720       7.51603083       8.44757661      -1.89980884       2.38538536      -0.08503400
Si       6.63163431       7.33709944       6.20707955      -1.27092717      -1.40801743      -3.12070708
Si       6.73826848       4.33751687       3.44151461      -1.26700449      -1.12932111      -2.36896268
Si       2.60892105       3.74065894       5.71330866       4.30275210      -3.12355881       1.47235765
Si       4.57394757       2.54874692       4.76077912       0.15997552      -4.71361769       2.42515740
Si       9.80855787       7.47975055       8.53980111       1.23112650      -1.12301307       0.47311585
Si       4.70824221       5.77073170       9.40037522       6.22236116       4.73529372       0.80335942
Si       4.72386137       5.19789684       2.52714971       4.81020366       0.04501754      -5.06720207
Si       9.43358946       4.68270474       5.82614504      -2.61773727      -3.50398537      -5.69445905
16
Lattice="1.7439050659039483e-16 5.47748410970072 5.47748410970072 5.47748410970072 2.9140779775007323e-16 5.47748410970072 5.47748410970072 5.47748410970072 3.8774317075040437e-16" Properties=species:S:1:pos:R:3:momenta:R:3 pbc="T T T"
Si       6.17905589       3.44632096       7.18032144      -0.03118415       1.79273025       0.83836541
Si       2.57370764       6.18807925       4.63274322      -0.56633107      -2.04454778      -3.65380044
Si       3.50161925       4.10767573       4.32740027       1.21587730       2.93131028       2.34904130
Si       9.51899126       9.61275759      10.49915355      -6.75949249      -4.37664504       0.92516471
Si       4.32128444       4.62812449       8.15052542       0.77171185      -2.69654883      -5.75907821
Si       4.34578470       6.91510368       7.77590223       0.48903196      -0.28110410       0.77561941
Si       4.44850558       7.34439288       5.44671209       0.66503246      -3.45920822      -0.59939075
Si       6.55128916       7.32650719       8.64340558      -1.93352161       2.20472801      -1.30288778
Si       8.00005419       7.61920429       6.76987443       0.20915565      -1.72315594       2.82568133
Si       5.70963024       4.02787985       3.53330098      -0.59444678       1.02815630       1.87838466
Si       2.50101118       4.48242456       6.52330845       1.79910381      -1.36095450      -2.93261098
Si       4.84988511       1.70549474       6.34257253       1.71468867       0.59199422      -2.26944288
Si       6.72673402       6.83214867       4.97538182      -1.39236130       1.93199987       4.49919944
Si       2.32571786       2.48093986       3.17066494       6.17781077      -1.92948897      -1.55503734
Si       5.61591810       4.99692560       1.27511268       6.46468093       5.29990784       2.45145049
Si       7.17449289       4.56675975       5.30450882      -8.22975599       2.09082660       1.52934160
16
Lattice="1.7439050659039483e-16 5.47748410970072 5.47748410970072 5.47748410970072 2.9140779775007323e-16 5.47748410970072 5.47748410970072 5.47748410970072 3.8774317075040437e-16" Properties=species:S:1:pos:R:3:momenta:R:3 pbc="T T T"
Si       0.74024716       2.05276265       2.10344441      -1.91493916       2.11890574       2.74358011
Si       3.37372454       7.41234928       4.21431736       3.01238614       0.62426466       0.48770219
Si       4.88617866       3.84435040       3.84470257       1.73489561       3.49470031      -2.59584456
Si       9.31342549      10.58025487       9.04544008       3.22588780       1.93040801      -0.83447536
Si       5.14446586       4.17484885       7.28863839       3.79849087      -6.06327676      -4.96803352
Si       2.84372943       2.46428825       1.02564239      -4.26480525       2.07797246      -4.65236868
Si       5.78646157       7.49015383       4.46123011       3.73407859       0.72416515       1.98159385
Si       8.86806351       6.87466972       7.13255650       2.87368217      -5.20605492       2.67582622
Si       6.51883420       7.49846567       7.42318217      -0.85785144       0.00464563      -3.08128779
Si       7.31604256       3.75979769       3.63349470      -2.88168357       0.24462715       2.30590768
Si       6.62117854       9.26755740       5.84634326      -6.42649056      -6.67918026       2.68974722
Si       3.50585699       3.43382720       5.78984782      -3.81734447       3.87741547      -0.17854588
Si       6.50077565       5.58155987       5.86083598      -2.54251110      -4.06770708       3.58754939
Si       4.31367147       1.81809056       2.74306295       0.78455386       3.17541829       2.55444804
Si       5.29433529       5.26875671       1.83891519       3.56615113       2.30566227      -4.43542492
Si       8.79417465       4.75900613       5.86678226      -0.02450060       1.43803389       1.71962601
16
Lattice="1.7439050659039483e-16 5.47748410970072 5.47748410970072 5.47748410970072 2.9140779775007323e-16 5.47748410970072 5.47748410970072 5.47748410970072 3.8774317075040437e-16" Properties=species:S:1:pos:R:3:momenta:R:3 pbc="T T T"
Si       0.85171175       2.88323103       2.13324257      -2.54440856      -3.21394084       1.17200858
Si       6.44080466       4.94893687       9.00172554      -1.41032714      -4.34902866      -0.58564256
Si       5.90479727       3.15820060       5.01324397      -0.54079730      -0.33155072       1.71158186
Si       9.72271599       9.46896460       8.59571616      -3.06303566       1.92562669       2.31230821
Si       5.57204878       7.26389132       8.39648221       1.25021416      -2.77640891       1.04709951
Si       2.25026450       7.23468535       5.75227876       1.28245456      -1.34623364       1.14197976
Si       4.18293235       7.43470297       4.35872350      -2.10985506       0.58980256      -3.01205915
Si       4.44521931       6.38007331       2.19782485      -0.53579652       6.26809469      -0.41644179
Si       5.93874562       7.28725664       5.97675508      -0.67593246       4.30443339       4.74705137
Si       6.62619793       5.53425859       1.54724107       6.20187920       3.69385231       0.68824905
Si       7.23206958       9.23036518       5.56185715       2.44341418      -2.45954499       1.92339703
Si       3.96156254       2.96368054       6.42239324      -1.15874718       0.88534408      -1.02798819
Si       7.04033729       5.24733487       5.42495951       4.69024782      -0.88036703       0.88549085
Si       8.10006716       5.68783793       3.37712525      -0.32764383       0.77838886      -3.74830098
Si       2.77252058       4.69983102       1.96238388      -3.38499556      -3.92058725      -4.49477525
Si       3.30168617       2.33497237       2.39648339      -0.11667066       0.83211944      -2.34395829
16
Lattice="1.7439050659039483e-16 5.47748410970072 5.47748410970072 5.47748410970072 2.9140779775007323e-16 5.47748410970072 5.47748410970072 5.47748410970072 3.8774317075040437e-16" Properties=species:S:1:pos:R:3:momenta:R:3 pbc="T T T"
Si      10.29376177       6.07568953       6.49327634      -0.92619878      -3.57572927      -1.45904218
Si       6.33263955       6.33962331      10.12461245       3.43379012       2.44902438       3.23229664
Si       4.17010371       3.47199440       4.68110788       1.66676036       0.49354468      -2.37651940
Si       9.37459668       8.98165970       9.10591685       0.70111907       1.45918502      -5.47537785
Si       5.50312494       7.79842230       8.36130515      -0.82327134      -0.10490392      -1.25355267
Si       3.38837602       1.63461229       2.02574154      -4.48719151      -0.84409457      -4.38773964
Si       4.76298254       5.66767079       4.66528030      -6.43922434       0.21113341      -4.62728746
Si       3.05683932       7.22686628       5.11803850      -0.39578937      -4.03255456       4.39647878
Si       6.87438302       8.11348521       6.34780115       3.16783162      -1.60502229       1.62676792
Si       5.83848478       4.84295120       2.70842059       0.53782896       4.19823373       1.97473013
Si       0.65616580       3.96868504       4.38531338      -2.37722253      -1.50127227       2.03629240
Si       9.19774144       8.13324981       6.86346634      -1.98431867      -2.08707623      -0.52226819
Si       6.91731402       5.98220430       5.43326099       2.28864870       1.71927818       2.69377443
Si       7.99945104       5.42050406       3.38193348       2.71027091      -1.72242778       2.23825055
Si       2.47339004       3.55736766       2.98737165       2.40678772      -0.74969450       1.41036507
Si       8.45929504       4.54323730       6.39055776       0.52017908       5.69237599       0.49283147
16
Lattice="1.7439050659039483e-16 5.47748410970072 5.47748410970072 5.47748410970072 2.9140779775007323e-16 5.47748410970072 5.47748410970072 5.47748410970072 3.8774317075040437e-16" Properties=species:S:1:pos:R:3:momenta:R:3 pbc="T T T"
Si       5.35820460       6.35621617       2.29204436       4.58580410      -0.94572617      -1.92169508
Si       4.81320388       4.81900890       0.53825363      -2.66430341      -4.78574341      -5.11784566
Si       4.30342378       2.35086360       4.37011436      -3.62831647       0.87782645       3.08496153
Si       8.23069536       7.68836943      10.16309976      -4.28936249       1.82054793       3.01816744
Si       5.04200231       5.17464276       6.34462020      -4.61729400       1.65515354       4.81652737
Si       3.80491774       6.76378966       7.54983460       7.50284764      -1.50837046       0.04074245
Si       4.14676569       5.88049094       4.25782115       4.62058709       1.90914132       5.74960353
Si       6.47305625       7.33200609       8.73054534       2.17612117      -4.01612647      -0.57813870
Si       7.18706039       5.60814394       7.09844089      -2.68496469       5.34448003      -0.27851876
Si       7.66627770       8.89338268       7.42253646       5.91683477      -0.12320098      -0.32638704
Si       6.59943591       8.93409314       5.26475209      -4.62142545       4.83720319      -1.60540315
Si       4.43485142       2.91545800       6.73600709      -3.57662232       3.00253999      -3.87100623
Si       7.49513812       5.56613149       2.92695624       3.57068765       0.56494558      -3.83926335
Si       8.43643338       5.99850392       5.06025478       1.20323144      -1.46526217       0.80823100
Si       2.73887161       4.10550467       3.61897601      -3.83105236      -0.15596492      -1.09895267
Si       3.09082743       3.37161782       1.22166327       0.33722732      -7.01144347       1.11897733
16
Lattice="1.7439050659039483e-16 5.47748410970072 5.47748410970072 5.47748410970072 2.9140779775007323e-16 5.47748410970072 5.47748410970072 5.47748410970072 3.8774317075040437e-16" Properties=species:S:1:pos:R:3:momenta:R:3 pbc="T T T"
Si       6.85098183      10.57188789       7.09926698      -3.29207994       2.45813666       3.04019120
Si       2.10681817       3.93573378       4.28387386       0.25288872       0.33073965       1.53424856
Si       4.61154821       1.35932838       4.55309215       4.87294819      -3.36370121       0.62457673
Si       8.90183718       9.03709656      10.46817771       5.68537773      -3.91873528      -0.72566706
Si       3.47014118       4.58547429       6.12137766      -2.70191968      -0.15323145      -0.48522085
Si       5.06158919       6.26465045       6.24146132      -1.69189137      -0.29506548      -4.79608566
Si       4.58626781       7.11451559       4.09271837       1.02791942      -1.24438613       1.35847345
Si       8.32752895       7.06730175       7.92663366      -1.87132610       1.69411953      -3.52044360
Si       7.31024746       5.56648650       6.44038661      -6.00347040      -2.39232424       8.45235717
Si       6.93013437       8.83411912       8.67517316       1.15553203      -0.67997741       1.54914479
Si       5.50963276      10.23358828       5.13496824      -1.58211254       3.43918258       3.65345292
Si       4.54351899       2.53963351       6.58460307      -1.54314497       0.88835269      -1.14614169
Si       0.95900689       1.77711710       2.45371139       4.42861901       2.00880408      -2.28632651
Si       7.74778753       6.99969933       4.55408678       3.46882773       1.41352095       3.56628436
Si       4.79614213       2.42876540       2.48968737       1.98691124      -0.12375167      -3.36688850
Si       2.63049881       3.44282526       1.95418602      -4.19307909      -0.06168325      -7.45195531
16
Lattice="1.7439050659039483e-16 5.47748410970072 5.47748410970072 5.47748410970072 2.9140779775007323e-16 5.47748410970072 5.47748410970072 5.47748410970072 3.8774317075040437e-16" Properties=species:S:1:pos:R:3:momenta:R:3 pbc="T T T"
Si       2.29397427       5.81151075       7.17546369       0.03007829      -1.26847785       1.39251738
Si       2.61672147       5.20452216       4.88234486       1.56037763      -2.99912847      -4.56108519
Si       4.32385971       2.00842532       4.40391847      -5.09887379      -0.92997935       0.96467611
Si       8.74969701       9.14688346       9.51636294      -0.61488894       5.74163421       6.00754790
Si       4.23586315       5.56822225       8.54293840       4.92957038      -0.06855265      -1.95558942
Si       5.08688111       5.65928863       4.72931630       0.69663328      -4.35213217       0.61550560
Si       4.41341736       7.29358673       3.10265771       0.94692517       3.58285148       1.48986057
Si       6.61761297       5.63973667       8.36025786       2.11414268       0.23313131      -2.46251212
Si       8.91076403       6.55092175       6.57004659      -1.19325912      -2.35240793      -1.58139287
Si       6.60234590       4.42634590       3.23720841       0.22191401       0.26718952      -1.39646661
Si       6.43688510       7.10942637       6.26992605       3.45896865      -1.06824584       1.93389666
Si       6.65684238       4.03660604       6.63814074      -3.98783502      -0.11752293      -3.22574511
Si       1.17832448       2.21531801       2.57086147      -2.53916058      -3.41052935      -1.02042472
Si       2.16386826       2.90099050       4.60326529      -0.18527600       2.40643063       0.58705359
Si       5.08014288       3.02702387       2.16541306       0.49188391       1.13611768      -0.73934023
Si       3.49899731       4.20444658       0.82779841      -0.83120056       3.19962171       3.95149846
16
Lattice="1.7439050659039483e-16 5.47748410970072 5.47748410970072 5.47748410970072 2.9140779775007323e-16 5.47748410970072 5.47748410970072 5.47748410970072 3.8774317075040437e-16" Properties=species:S:1:pos:R:3:momenta:R:3 pbc="T T T"
Si       1.97710135       7.06423030       5.73775892      -6.41398706       0.67321571      -0.14708904
Si       2.80614344       5.20979710       4.59565368      -1.75433396       1.98516353      -5.35160934
Si       6.34860060       2.92782606       3.96289807       1.78050499       2.54737819      -2.04402345
Si       8.97426922       5.41136875       4.28220922      -0.44901120       2.96197827       2.53010478
Si       5.14288254       4.32597975       8.47643096      -2.50171480       3.62203519       1.49951691
Si       6.24760486       5.66719871       6.70142458      -0.06136218      -3.50159976       2.36929247
Si       1.20060529       3.45674150       4.64524352      -1.70217482      -4.51124267      -0.24583569
Si       8.23594226       6.19071815       7.89572518       3.96477384      -2.19866706      -0.56465882
Si       9.79091265       7.94800350       7.33461502       6.52517437       0.51213628      -9.01243325
Si       6.64111217       5.24006488       4.17940982      -1.54700781       0.25270704      -2.31763763
Si       5.95637057       7.97904364       6.92058916      -0.47039550       0.84028244       5.87397781
Si       4.36081194       3.45166349       5.15766974       1.58629780      -2.78928675       1.16914830
Si       5.91880764       6.19588281       1.90511108      -1.37753263      -0.60633651       4.92311081
Si       3.01760138       2.16111014       3.75953700       2.95979140      -3.13855721       5.15757890
Si       4.10193089       4.90047891       1.02018482       4.18524721       2.73333435      -2.53573751
Si       3.62298469       2.67314728       1.54397536      -4.72426965       0.61745897      -1.30370526
16
Lattice="1.7439050659039483e-16 5.47748410970072 5.47748410970072 5.47748410970072 2.9140779775007323e-16 5.47748410970072 5.47748410970072 5.47748410970072 3.8774317075040437e-16" Properties=species:S:1:pos:R:3:momenta:R:3 pbc="T T T"
Si       2.14525891       6.78667590       6.04927514      -3.51188271       1.37364252      -5.64271375
Si       2.07350177       5.68500177       3.97006775       1.93681114      -4.79973139       1.68899803
Si       5.72984278       3.73085486       3.96945246      -0.99529458       0.07189665       4.17800776
Si       9.37868240       4.70852220       5.08396301       3.05154150       2.67955321       0.17830135
Si       5.06962236       4.57674880       7.20161151       0.14229818      -5.30808702       5.06755424
Si       5.33318993       6.80730005       6.44631518       6.80963186      -1.45877149       1.09056839
Si       6.64040295       7.44615385       4.60998521      -0.61378791      -2.52272753      -3.04131006
Si       6.63761625       7.44485997       8.23546278      -5.44588193      -5.74740292      -4.21017464
Si       7.94467308       8.08523355       6.44881091      -3.55551433       3.16078195       1.54136078
Si       2.74152757       4.83874406       7.19965109      -0.17146966       0.48737539      -6.53841516
Si       0.34382759       4.10202157       3.88106751       1.38670723      -0.01398111       0.37862426
Si       5.66263246       2.62891451       6.04969097       0.63276025       2.04200374       3.88879777
Si       7.46043450       5.31293231       3.87711902       0.23616386       2.17143539      -2.77464605
Si       9.62623129       6.44420989       6.62115433       0.00506935       4.02632027       3.01085690
Si       3.90210138       4.70895100       2.80573288      -2.22303743       4.94681259       2.07408281
Si       3.65413627       2.97361482       1.14656051       2.31588519      -1.10912024      -0.88989262
16
Lattice="1.7439050659039483e-16 5.47748410970072 5.47748410970072 5.47748410970072 2.9140779775007323e-16 5.47748410970072 5.47748410970072 5.47748410970072 3.8774317075040437e-16" Properties=species:S:1:pos:R:3:momenta:R:3 pbc="T T T"
Si       1.76080041       1.78207345       0.04170975      -1.14273918      -5.40356700      -1.07372088
Si       2.18617337       4.96313212       5.92030166       1.47667623       1.78481400       0.59002752
Si       4.86992041       4.84392203       3.35336460       1.43562705       1.16885900      -2.37593587
Si       9.65118548      10.29902755       9.59416090      -0.62947479      -2.18205225       3.97738093
Si       4.54519602       4.62397593       5.69328303       0.02631901       1.01683023       0.21337753
Si       5.69649236       7.07321048       6.54263746       2.41541908       1.05258584      -3.95327674
Si       4.73614249       7.16354097       2.98180904       0.98603293      -3.31224658       3.38634345
Si       8.31815640       8.37175119       9.21028228      -1.95482727       6.71470298      -0.53180238
Si       8.74397353       6.12998345       5.86387748       1.20011050       0.89983891      -0.61149234
Si       6.65697760       9.12624080       7.68235443      -1.51540596      -1.60054246      -3.43362704
Si       1.11562542       4.34935363       3.90084257       1.98306957      -1.37694700      -3.46386345
Si       5.02251610       2.32058428       6.22279504       3.65197871       0.14154427       0.00643572
Si       6.57668718       7.51191490       4.36160454      -2.26459962       2.77176520      -1.17715664
Si       2.67920363       0.79774292       3.03931789      -5.06957479      -3.66362319       3.36065812
Si       2.85998842       4.54522938       2.19273231      -4.08625114      -0.68743777       4.58413566
Si       3.44715857       2.37905600       1.51736316       3.48763967       2.67547581       0.50251643
16
Lattice="1.7439050659039483e-16 5.47748410970072 5.47748410970072 5.47748410970072 2.9140779775007323e-16 5.47748410970072 5.47748410970072 5.47748410970072 3.8774317075040437e-16" Properties=species:S:1:pos:R:3:momenta:R:3 pbc="T T T"
Si       5.47106222       0.95271832       6.35330363      -0.50642562       2.30847663       1.28251659
Si       1.76168785       5.31345806       5.37541447       1.07098833      -6.83909773       0.69026816
Si       5.69026698       7.96501048       7.59697330      -1.09574534       4.54023066      -2.92620420
Si       8.70668047       8.78082423       9.11588082       0.07569374      -1.06918455       3.87564141
Si       3.30977686       4.85420593       7.23764431      -1.13364481      -5.39922242      -2.97886866
Si       3.51858429       1.59645112       2.57440256       1.47978450      -5.67640123       1.87392881
Si       5.38176534       7.79597450       3.98075308      -0.58874370      -0.03053957      -7.54381676
Si       7.38646997       6.74148201       8.82121500       0.78047583       2.37027726      -5.25470027
Si       3.52162065       1.75062889       4.98410765       1.88435795       1.08203210      -1.21415556
Si       4.88544107       4.70676139       2.38504497       1.22979029      -0.88881500      -4.14296743
Si       6.90923601       8.44146239       5.58693703      -1.12044314       7.17981351       7.09275635
Si       4.96144240       3.80664317       5.98801354      -3.34948459       3.78293611      -0.79350430
Si       5.65585643       5.44453440       4.44186950       0.14020188       1.00562566       3.94322018
Si       7.90994265       5.08524728       5.10066318       1.08276164       0.41613486       0.21703850
Si       8.02589117       4.82269830       7.45770928      -1.14516831      -0.54313516       6.31943407
Si       1.24795711       2.74515453       2.07347204       1.19560134      -2.23913115      -0.44058690
16
Lattice="1.7439050659039483e-16 5.47748410970072 5.47748410970072 5.47748410970072 2.9140779775007323e-16 5.47748410970072 5.47748410970072 5.47748410970072 3.8774317075040437e-16" Properties=species:S:1:pos:R:3:momenta:R:3 pbc="T T T"
Si       1.98334448       2.80582719       1.85586566       1.75244821       1.75645077       0.03558020
Si       2.52859767       5.78834507       6.14951793      -4.00966895      -4.83582685      -1.53041892
Si       4.97296753       3.32262724       4.35825026      -3.03429064      -0.85173113      -1.39263089
Si       7.27963992       3.18512138       4.98508957      -1.59330144      -2.77967289       3.89031819
Si       4.51499159       4.54923655       8.34295552       4.24438800       0.47556248      -2.66365355
Si       4.78000222       6.16878295       6.70430714      -4.21439589      -0.26844952      -0.73318460
Si       4.80578523       5.69009172       4.40345979      -4.44915529       3.08459578       6.93022984
Si       8.09271485       6.65644793       9.29047921       5.12763486       0.57238161      -0.99523846
Si       8.73999564       7.53617678       5.45740923      -1.94418975       1.54030840       0.98842968
Si       5.13163402       4.56895682       0.93455926       1.17365684      -0.51460068      -0.32450348
Si       1.61300999       3.77648189       5.36478507       8.98024878      -3.36185342       5.58725809
Si       9.44350458       7.79956975       7.66996873      -2.17851689      -0.86912520      -4.19362875
Si       5.88767685       6.42305521       2.33981594      -0.00860381      -0.06101864      -1.63106785
Si       8.86950342       5.11130453       4.86334147      -0.72639391       4.41212065      -3.18518258
Si       6.83729137       4.64884643       8.69822602       1.36671865      -0.19278191       0.83647215
Si       4.34050622       2.77238352       2.17788946      -0.48657876       1.89364055      -1.61877906
16
Lattice="1.7439050659039483e-16 5.47748410970072 5.47748410970072 5.47748410970072 2.9140779775007323e-16 5.47748410970072 5.47748410970072 5.47748410970072 3.8774317075040437e-16" Properties=species:S:1:pos:R:3:momenta:R:3 pbc="T T T"
Si       0.18639721       2.39425246       2.22225041      -0.32463679      -5.11831487       4.75914806
Si       5.02040454       5.67907934      10.09916244       3.89102604      -3.03910812      -2.76657137
Si       5.17940140       4.52043769       4.49858734       0.27824789      -1.85289035      -1.90896947
Si       7.32922540       4.29588288       3.53116413      -0.35375894      -3.00196685      -6.54513304
Si       5.93600819       4.67673382       8.22002003      -2.06611945       4.76611382      -2.43009879
Si       5.36767281       5.94836142       6.36194468      -2.21469361       5.53092380      -2.04604062
Si       8.05710632       7.81224868      10.05286458       3.73063908      -0.94259111       1.48522635
Si       4.15705168       6.47429076       3.44059791       1.12770568       2.10509274       1.73782997
Si       7.47594227       6.93499616       6.33808311      -6.89732577      -0.90463294      -8.03180785
Si       5.00943394       4.31438701       1.02988272       1.71420947      -1.03876879       0.14803492
Si       7.33777419       9.30826866       6.70699351      -9.57906105       1.86647911       3.88072497
Si       5.81681138       2.25251890       5.34553779       5.82727009      -0.40542548       1.82176135
Si       2.45020752       2.52317976       2.79915018       0.00001251       2.50290856       1.09213935
Si       8.30785621       6.27384046       4.27769664       3.36447687       4.01745851      -0.06284043
Si       8.30301414       5.11438480       7.67655416       1.44738509      -3.01485486       2.03413921
Si       3.88685841       7.75787628       6.47291473       0.05462289      -1.47042316       6.83245740
16
Lattice="1.7439050659039483e-16 5.47748410970072 5.47748410970072 5.47748410970072 2.9140779775007323e-16 5.47748410970072 5.47748410970072 5.47748410970072 3.8774317075040437e-16" Properties=species:S:1:pos:R:3:momenta:R:3 pbc="T T T"
Si       6.71741885       2.31816501       6.20070368       1.96104458       2.20846183      -1.95440538
Si       0.67800930       5.71901629       5.35504312      -3.72774796      -1.86503709       1.86946799
Si       5.90185343       4.97755123       3.93567678      -6.18558597       4.01044303       1.71079364
Si       9.12227240       8.32581240       8.85589513      -1.04225587      -4.09124341      -3.64693694
Si       4.71578843       4.64004665       7.80003463       4.48630456      -0.46969962       0.74687622
Si       4.02392182       1.38449848       2.72334195      -1.26905144      -3.95509995       4.24763435
Si       5.47796549       7.21467537       4.39878365      -0.54640184       1.09553663      -5.65442653
Si       1.41142042       4.61658220       3.29883119       2.10030160      -0.38512823      -0.95426729
Si       8.09658248       7.25950600       6.96049472       0.47052416       3.83676660      -0.71228663
Si       5.31101779       4.49105224       1.70461486      -0.85228897       0.36717139       6.60327363
Si       5.75359046       7.72638452       6.71156832       0.54394289      -4.24781436       2.82313021
Si       4.89072405       3.76722004       5.63941797       7.70830322      -0.59975269       6.48717285
Si       1.80846582       2.32651929       2.98292387      -1.81769273       0.20378679      -1.93192467
Si       4.18926847       1.63196421       5.06070635      -2.58287462       3.30325426      -4.80046969
Si       8.46799769       4.97393738       7.01562758      -1.86972868      -1.99665982      -4.62779046
Si       7.77738458       3.95283956       4.95225644       2.62320707       2.58501464      -0.20584130
16
Lattice="1.7439050659039483e-16 5.47748410970072 5.47748410970072 5.47748410970072 2.9140779775007323e-16 5.47748410970072 5.47748410970072 5.47748410970072 3.8774317075040437e-16" Properties=species:S:1:pos:R:3:momenta:R:3 pbc="T T T"
Si       6.43066657       4.04333746       7.11708793       0.61728494      -4.00895780      -2.06618881
Si       0.51910729       5.69156472       5.59782711       5.27228085      -2.16816988       0.02575560
Si       3.66739773       4.23725977       3.95674387       1.91546756       2.88155552       4.79343069
Si       8.92593004       8.60097882       9.22956763       5.34439476       3.71332336      -2.41613715
Si       4.09649138       4.46366234       7.32380456      -1.15955270      -1.92194427       5.00938546
Si       3.36364849       1.05619677       2.67862572      -4.80652187       2.67131714      -4.66402254
Si       5.43734923       7.38272356       4.25065449      -2.60420034      -1.87373578      -4.66133825
Si       7.15493281       5.45415414       8.93698545       0.84244524       5.42347377       1.91686428
Si       3.02501624       2.89972868       5.86375608       0.42602232       3.07309942      -0.95813403
Si       7.24108859       7.59271328       7.98174746      -5.23986907      -6.38678424       1.36292993
Si       6.16771781       8.79489886       6.06584166       2.16090973      -1.36482789      -0.51414731
Si       5.34617171       5.24582302       5.20992112      -0.40558883      -2.26122206       6.55920713
Si       1.12609058       1.66944750       2.11515545       2.67606607      -2.97162645      -2.01977417
Si       9.23875495       6.30774580       5.03336645       2.19686362      -0.66368423      -3.53431752
Si       4.23442964       3.12782818       1.94550088      -2.25442922      -1.50586169      -1.71062714
Si       8.36888842       4.23519206       5.76681850      -4.98157307       7.36404508       2.87711382
16
Lattice="1.7439050659039483e-16 5.47748410970072 5.47748410970072 5.47748410970072 2.9140779775007323e-16 5.47748410970072 5.47748410970072 5.47748410970072 3.8774317075040437e-16" Properties=species:S:1:pos:R:3:momenta:R:3 pbc="T T T"
Si       0.84024377       2.98722602       2.43516859      -0.71913036      -2.70287596       2.38985643
Si       2.03550249       4.39577768       4.91890916       0.91499495       1.77818382       4.32211318
Si       3.17437797       3.01315591       3.34969101      -4.68804196       2.52166867       0.48389374
Si       8.18425128       3.99001020       4.45616893      -4.27986081      -0.85658239      -2.57763991
Si       6.02959103       5.42124216       8.87736691       0.45438819       4.88826462       7.39274782
Si       3.33822866       5.94006667       6.09224373      -3.83952806      -2.90355084      -3.36567815
Si       4.28710811       7.74360459       4.76899164       0.26454909       0.12634559      -0.78276813
Si       6.87904356       6.52757664       6.96654113       1.63756806      -1.39089188       0.27975201
Si       8.85986685       5.65110942       6.02910668       3.64453449      -1.06504235       3.09123610
Si       2.57087561       0.43208108       2.87035487      -7.30931816      -3.78033676      -2.95740663
Si       5.98582964       8.59236007       6.21244597       3.21436400      -0.86787911      -2.78727687
Si       5.50022750       5.28563959       5.54947188      -1.36058959      -0.67703739      -2.13337922
Si       5.66664277       6.23444022       3.34076496       2.56860500      -1.80847245       3.71974747
Si       4.65907177       1.54755107       4.56658814       4.43292648       0.48985253       2.43965345
Si       4.62427624       4.47098908       2.13349887      -0.29541781       5.32800624      -6.34766288
Si       6.23106012       3.09294046       5.55112364       5.35995649       0.92034766      -3.16718841
16
Lattice="1.7439050659039483e-16 5.47748410970072 5.47748410970072 5.47748410970072 2.9140779775007323e-16 5.47748410970072 5.47748410970072 5.47748410970072 3.8774317075040437e-16" Properties=species:S:1:pos:R:3:momenta:R:3 pbc="T T T"
Si       5.22766328       7.08599074       1.99815497       2.90356790      -2.64922272       5.07289055
Si       1.33148071       6.07549735       6.02667802       1.71401946      -2.47554892      -1.77719218
Si       3.10600656       3.36004099       4.69630545      -4.26810581       0.88688526      -0.99902859
Si       8.88556518       5.04017970       4.63044327       2.31793411       1.15998260       0.01132703
Si       5.94897601       4.93428208       6.99331823      -0.41516103      -6.18735361       1.01269716
Si       2.73624078       7.06435793       4.48365047      -4.47001871       3.58204962      -3.26954302
Si      10.50816730       9.21198745       8.82007675      -5.52198736       4.49365999      -0.95990102
Si       7.14733450       6.87532483       7.76016620      -1.75556619       2.10307340      -3.16479106
Si       8.84569576       6.95629283       6.09107259      -3.54288615      -2.83565564       2.72414016
Si       5.65087996       8.66185174       7.42340062      -1.66226405       1.94140541      -2.37414954
Si       6.36304983       9.38369279       5.26181479       4.54844593       4.79884445       1.41146318
Si       4.44345152       5.28421611       5.11494171       2.28423849      -0.59425626      -1.24069490
Si       5.87813791       5.18089652       3.24716367      -0.06309944      -2.19330660       2.71416937
Si       2.62880490       0.42045551       2.58169036       0.89949723       1.96320532      -1.25408057
Si       3.39635011       2.66517186       2.43665274       4.03902252      -1.22072943       1.83748453
Si       7.72336128       3.55798477       6.03039041       2.99236309      -2.77303287       0.25520892
16
Lattice="1.7439050659039483e-16 5.47748410970072 5.47748410970072 5.47748410970072 2.9140779775007323e-16 5.47748410970072 5.47748410970072 5.47748410970072 3.8774317075040437e-16" Properties=species:S:1:pos:R:3:momenta:R:3 pbc="T T T"
Si       0.02839966       2.05188980       2.06068658       0.22327380       3.33214537      -3.37164931
Si       2.68238708       6.02877337       4.89510565      -5.31821118      -1.84605440       1.20212603
Si       3.09969301       2.33856396       5.03400753       8.99861658       0.57099694      -2.55218068
Si       8.11071215       9.77659823       8.93079507       3.98960936       2.24280414       1.02530376
Si       5.70685531       7.25178232       7.46056753      -1.64616056      -3.27084228       2.70019339
Si       4.88627924       6.75499394       5.12423163       2.16544709       5.33270830      -6.45952836
Si       4.94236248       8.80539326       3.92023171      -1.25634679      -2.26606236       2.26630093
Si       6.87100476       7.70752113       9.47140664      -0.36791074       3.00050657       2.21961008
Si       7.75444774       6.22561380       6.63395153      -2.40220521      -3.07841251      -3.74650525
Si       6.13327978       9.65241119       7.25242578      -1.82623346      -1.51813266       1.66885524
Si       1.45751341       4.02973140       4.99087499       0.94889672       4.03634703      -1.88866119
Si       5.26649413       3.09911070       5.49402653      -4.75244972      -1.59579852       1.60098196
Si       2.01704551       0.92381512       1.66279444       0.98931661       2.55392451      -2.63444050
Si       3.74863860       1.02863351       3.16989324      -2.64134473       0.29581894       3.87093169
Si       4.17875626       5.57045173       2.42405168       0.64609293      -3.68013786       3.87090801
Si       6.50484414       5.03545560       5.07086971       2.24960932      -4.10981120       0.22775421
16
Lattice="1.7439050659039483e-16 5.47748410970072 5.47748410970072 5.47748410970072 2.9140779775007323e-16 5.47748410970072 5.47748410970072 5.47748410970072 3.8774317075040437e-16" Properties=species:S:1:pos:R:3:momenta:R:3 pbc="T T T"
Si       6.60128177       2.16982739       5.81180650       2.62679316       1.22696506       0.90270913
Si       7.00520522       6.03041381       9.62675621       2.37889410       2.78506742      -2.96368647
Si       3.10317866       4.13543950       4.14166886      -2.38594877       4.71799039       1.99283772
Si       7.06965354       4.39694324       5.05318233       2.53758569       1.99218247       0.31574228
Si       4.33684958       5.33581447       7.12271722      -3.54526427      -2.35788402      -2.57083361
Si       6.09024227       6.42897108       5.91689240       2.73505894      -0.75170883       0.96727019
Si       5.03717698       7.93126367       4.25258529      -1.71474738       2.59910148       2.23852237
Si       9.49547487       7.15112255       7.74000734      -4.16342122       0.27456484      -1.72581348
Si       7.18987048       7.47161798       7.74213373       1.24508012      -3.91306908      -3.12984907
Si       6.63780471       4.28379335       2.72810661       2.40754719      -7.09093917      -5.61856441
Si       5.06420652       4.84946208       9.27392092      -2.35607866       2.18416518       3.78160011
Si       4.42874033       3.24989356       6.00495968      -4.05506128       3.10314437       1.63426031
Si       2.19900139       0.82623204       1.98939451       6.06721265      -2.30352384      -0.26125768
Si       1.85457679       2.20543750       3.84281302       1.64211722       0.13031327       4.51265897
Si       4.40156331       4.78734896       2.25530735      -2.87599198      -0.74410155      -0.80684895
Si       9.30633916       4.07218970       5.57115240      -0.54377553      -1.85226799       0.73125258
16
Lattice="1.7439050659039483e-16 5.47748410970072 5.47748410970072 5.47748410970072 2.9140779775007323e-16 5.47748410970072 5.47748410970072 5.47748410970072 3.8774317075040437e-16" Properties=species:S:1:pos:R:3:momenta:R:3 pbc="T T T"
Si       2.18892276       1.96877556       1.46036743       1.24561014      -4.67371912      -3.70574048
Si       2.57557140       6.51484010       4.81866851       1.04392101       1.95777767      -0.62663386
Si       4.92913967       3.51864687       4.19716883      -0.41978841      -0.29630272       1.94514936
Si       8.75224594      10.18608227       9.36652651       0.49553645      -0.94145601      -1.12864704
Si       5.23758455       4.70791434       8.01841436      -0.16429525      -0.48094734       1.91957941
Si       5.54757052       6.51645297       6.55183153      -5.60598532      -0.60772974      -4.41891963
Si       4.93135670       5.89625887       4.19984270      -1.34510153      -1.91328636       6.53197744
Si       9.78733297       6.51552416       7.32194476      -4.96780693       6.16087052      -0.57493094
Si       7.66780524       7.44494315       6.93552372      -4.79751270       0.69894449       2.54180586
Si       7.28504361       8.37810883       9.05461546       2.60232236       3.47369444       1.73806245
Si       1.10712581       4.70743197       4.50505541       3.74039061       3.50768338      -3.68006182
Si       5.54714392       2.90003892       6.55189954       0.90356896      -1.27200343       7.37453027
Si       7.28381899       6.51486770       3.57840404       2.33702323      -2.35933232       3.50840040
Si       2.57336250       2.89943066       4.81765385       3.11304886      -0.89416903      -1.60178768
Si       4.62170636       4.70950346       0.37539899      -1.16377439      -1.62101308      -1.21540943
Si       4.30795053       2.90191925       1.84260461       2.98284290      -0.73901135      -8.60737431
16
Lattice="1.7439050659039483e-16 5.47748410970072 5.47748410970072 5.47748410970072 2.9140779775007323e-16 5.47748410970072 5.47748410970072 5.47748410970072 3.8774317075040437e-16" Properties=species:S:1:pos:R:3:momenta:R:3 pbc="T T T"
Si       1.11678384       1.28815403       1.93652098      -0.64547663       0.87433791      -1.63728233
Si       1.52004495       6.32559148       5.14587477       5.48562527       6.40737291      -1.77578283
Si       4.22683852       1.86395437       3.05485712       0.01590721      -4.24377642      -4.76612517
Si       7.88596531       9.18014934       8.92432823      -5.26110882       0.48161587       8.03880387
Si       5.52761502       5.71776980       7.34565606       0.24416003      -0.67242164       4.12888050
Si       3.83168387       6.39939380       4.66846662      -0.79635357       2.11133198       2.75916507
Si       4.28538264       8.84158437       4.86028269       6.14235912      -1.66077973       2.65980620
Si       4.34847481       6.44453351       2.36343115       2.32804097      -6.71982894      -3.97437793
Si       8.60785617       8.24651637       6.89843432      -2.80321692      -3.53991774       1.54186550
Si       5.89679158       2.82649645       4.40679653      -0.38512552       1.16785224      -1.63763444
Si       0.69110760       4.49776737       3.83881887       2.31871475       2.36539305      -0.93617824
Si       4.54890176       4.31856493       5.73855559      -7.35369222       1.03099335       6.27070272
Si       7.87883923       6.00229184       3.73460242      -1.14465532      -4.74570822      -4.34021198
Si       7.36959290       6.42681622       6.00045333      -4.59968350       0.40365241      -2.90782110
Si       8.85608089       4.67546201       6.62286097       2.38387342       4.08332730       0.34990643
Si       2.27423830       3.22569319       2.57849649       4.07063174       2.65655566      -3.77371627
16
Lattice="1.7439050659039483e-16 5.47748410970072 5.47748410970072 5.47748410970072 2.9140779775007323e-16 5.47748410970072 5.47748410970072 5.47748410970072 3.8774317075040437e-16" Properties=species:S:1:pos:R:3:momenta:R:3 pbc="T T T"
Si       7.00964817       2.10758682       5.81683185       1.69279957      -1.88713206       4.31739975
Si       5.26188694       1.31424712       4.41730251       2.63295970       3.32047434      -6.45234572
Si       3.62837387       3.36797340       3.60854758       0.49569861       1.47951331       0.27639939
Si       1.71747335       0.28868911       1.81057612       1.09372339      -2.68123708      -0.58008403
Si       5.53535796       4.79513395       8.48700999      -1.96089050       1.50838380       1.52425814
Si       4.08162668       5.69826641       6.91880529       2.37177775      -1.30716890      -7.08769154
Si       5.19366743       8.48095542       4.40845018       1.23205655       3.01804197      -2.07400150
Si       3.18464486       7.30507329       4.15348945       0.78308844      -2.44177962       1.26655950
Si       7.69924377       7.35773118       7.47252700       0.33222817      -0.56500125       2.43738223
Si       5.26671835       7.66900049       7.66136905      -2.04328359      -1.85524798      -0.72219017
Si       5.51901481       9.69508086       6.46669401      -0.00372781       5.10607040      -3.33373905
Si       4.47262082       5.34190227       4.62765307      -4.11645814      -4.49012014      -1.01414293
Si       6.48824616       6.48200105       3.97352268      -1.22101141       1.68819368       2.13473227
Si       8.41915727       7.13982447       5.18731294      -0.98610843      -2.35145954       6.42020243
Si       8.94137314       5.38121727       6.64652852       1.87647217       2.36980336       0.07972194
Si       1.92462790       3.85605597       1.93930002      -2.17932447      -0.91133429       2.80753928
16
Lattice="1.7439050659039483e-16 5.47748410970072 5.47748410970072 5.47748410970072 2.9140779775007323e-16 5.47748410970072 5.47748410970072 5.47748410970072 3.8774317075040437e-16" Properties=species:S:1:pos:R:3:momenta:R:3 pbc="T T T"
Si       6.87417838       1.51756856       5.37161845       0.76512123      -0.51924640      -0.47691410
Si       5.33370461       5.45483171       9.97444455       0.39137991      -0.59495282      -2.76866003
Si       2.59522745       2.71586059       4.49715787      -2.30354182      -2.14863939      -6.42712469
Si       7.50693501       4.88956414       3.09513593      -1.16027860       2.85931019       0.03246853
Si       0.98190586       3.84145340       3.24627999       0.79709138       5.99900063      -0.08548995
Si       3.71542974       6.57485170       5.00885140      -0.18387813       5.70032343       0.52675929
Si       4.76879474       7.62848336       3.09522100       0.34323654      -1.38419421      -0.77622959
Si       8.63268291       8.75378616       7.32210816      -2.69389780      -0.32576806       0.58995262
Si       7.09221542       7.21358996       6.44732797       6.38315890       2.07126590       5.03851181
Si       6.45408153       3.83621063       5.00902939      -3.99326520      -3.84789780       1.42078967
Si       4.77324501       7.63357977       6.80990068      -5.21380140      -1.51066084       1.77883660
Si       4.13537983       4.25607598       5.37179032      -0.70314542      -1.24862463      -1.69231902
Si       5.89383685       6.01514016       1.84408677       1.56369721       0.34409855       3.00792836
Si       3.72009685       1.10244092       3.24604737       1.92159712       0.79323577       0.59172743
Si       4.35355003       4.47485709       0.96973268       4.07120204       2.71573341       0.55926791
Si       7.51242163       4.89493472       6.80987614       0.01532403      -8.90298374      -1.31950482
16
Lattice="1.7439050659039483e-16 5.47748410970072 5.47748410970072 5.47748410970072 2.9140779775007323e-16 5.47748410970072 5.47748410970072 5.47748410970072 3.8774317075040437e-16" Properties=species:S:1:pos:R:3:momenta:R:3 pbc="T T T"
Si       7.65408674       7.29779769       9.93537297       1.87711133      -4.61694044      -0.57594816
Si       5.91495823       5.66579972      10.26259299       0.47009795       1.95967059      -3.77870860
Si       4.74426966       2.95379806       1.81278630      -0.20682789      -1.49151050      -3.21332660
Si       3.14403225       5.16896062       7.84956988      -0.15519951       0.18227257       2.77164239
Si       5.22338984       6.16405138       8.08304581      -4.70687844      -6.73462693      -1.15194261
Si       2.67448576       1.71203934       1.24915279      -4.06273660      -0.06003492       5.96055370
Si       1.51256101       3.80334145       3.84688034       0.93576211       4.59821500       6.10703569
Si       9.30147797       6.89033629       8.32627451       5.79206840       2.26906763      -4.50049653
Si       8.67057745       8.57443816       6.80058263       4.69960868       2.88985236      -0.10849950
Si       6.00086710       3.41040652       3.80658755      -0.42574408      -3.37805343      -2.73838716
Si       6.62801019       7.99988931       5.82976474      -3.46344534       1.80859362       1.96101257
Si       5.40240056       3.43495706       6.06545578       2.02430365       6.67841785       0.72182719
Si       0.66228538       1.99214308       2.62606497      -1.11730247      -2.24135138       3.94846262
Si       6.94095925       5.57013452       3.94458083       3.26429008      -4.43593291      -0.32083297
Si       3.10689621       4.71787765       2.27623314       1.05997136       6.28790126      -2.48759453
Si       6.76242389       5.44728413       6.35845914      -5.98507922      -3.71554037      -2.59479750
16
Lattice="1.7439050659039483e-16 5.47748410970072 5.47748410970072 5.47748410970072 2.9140779775007323e-16 5.47748410970072 5.47748410970072 5.47748410970072 3.8774317075040437e-16" Properties=species:S:1:pos:R:3:momenta:R:3 pbc="T T T"
Si       1.66517207       2.46987670       1.23610636       2.29327124       1.95995733      -5.78978620
Si       5.78832266       5.93925549       9.50577213      -1.82910547      -2.25605847      -3.97188015
Si       5.20226900       1.14528652       6.24633196      -0.19199292      -1.86507593      -0.42851487
Si      10.20785397       9.24508599       9.18866159       2.57546895      -3.02257371      -2.01291157
Si       4.73737832       6.51937083       7.51790367       2.80271688      10.54049673       4.47011345
Si       2.47961893       5.88205797       7.47503446       2.97186807       0.65409716      -4.45430319
Si       1.53889212       3.29359276       4.01897797       3.61270427       3.22964267      -0.08344196
Si       2.50355407       5.34818624       3.08683383       0.16086155      -1.16052600      -1.66106134
Si       4.01802167       3.05152547       7.02133744      -6.93585634       1.08925286       1.39367082
Si       5.22158232       3.38730923       1.90173168       3.35164166      -0.01062046      -4.64666829
Si       7.34106089       9.31058014       6.39508923      -1.22033725       2.43494668       3.44332770
Si       5.29392531       4.75193383       5.96148338      -3.89141686      -2.87902389      -2.51812356
Si       6.88582563       6.38676209       4.01817483       2.32696497       1.09318723       1.21989450
Si       7.60267900       5.39534665       6.15747081      -0.06951130      -2.18446734       0.54626511
Si       4.85239988       5.08917956       3.62478767      -1.98691217      -4.77596795       6.50065730
Si       3.52764153       3.58790553       0.24022323      -3.97036527      -2.84726691       7.99276223
16
Lattice="1.7439050659039483e-16 5.47748410970072 5.47748410970072 5.47748410970072 2.9140779775007323e-16 5.47748410970072 5.47748410970072 5.47748410970072 3.8774317075040437e-16" Properties=species:S:1:pos:R:3:momenta:R:3 pbc="T T T"
Si       6.72314805       3.74526155       6.81610308      -1.24125409      -4.10136670      -0.01617973
Si       5.97422255       6.94937500       9.28175416      -2.48074062       3.94882198      -2.64111855
Si       5.04631200       7.83681573       7.29775919      -0.85384592       3.88177504      -3.26113554
Si       7.78059596       5.39051252       4.76969307      -4.28198271      -0.29274081       0.45078982
Si       3.39409874       4.40327311       6.10898019       7.48120647      -4.28927032       1.60319704
Si       2.76971220       2.01343305       1.41513775      -3.83699849       1.40645289      -1.02206141
Si       4.28540549       7.47903940       3.74552346      -0.24265310       2.62726403       0.08966326
Si       7.13153462       5.00421741       8.71592293      -2.33781887      -0.67250765       3.27273973
Si       6.08300170       7.10769363       5.26104244      -0.09505950       3.09490263      -0.34260411
Si       5.41602507       4.72479430       1.71145629      -4.13431620      -4.14674092      -1.45767040
Si       6.81672528       9.28849263       5.20602803      -1.01111351      -0.13689484      -0.68291747
Si       4.64515791       2.64286619       6.95879117       3.38589060       0.77536483      -0.56211430
Si       7.60169688       5.46461032       2.35549439       1.05058107       0.91482502      -0.29459607
Si       9.95332947       6.21389211       5.54167338       4.97689060      -4.57006504       1.83418559
Si       3.93444781       5.17558919       3.72717485      -3.20344176      -1.31252111       4.12926786
Si       7.74323598       8.31835707      10.16086999       6.82465602       2.87270098      -1.09944572
16
Lattice="1.7439050659039483e-16 5.47748410970072 5.47748410970072 5.47748410970072 2.9140779775007323e-16 5.47748410970072 5.47748410970072 5.47748410970072 3.8774317075040437e-16" Properties=species:S:1:pos:R:3:momenta:R:3 pbc="T T T"
Si       6.62613016       2.73489498       6.52553739       2.28361938       1.69102487       5.93470142
Si       1.32248146       5.31860717       4.33879452      -5.27187795      -1.50593548       0.20016307
Si       3.36469518       3.29603163       3.83528958       2.55329954      -1.44551940       3.50781090
Si       8.92276656       4.96655046       4.46409789      -0.45816045      -2.96185172       3.83337311
Si       3.96735416       1.19281582       2.84627346       2.94908748      -3.30716659       6.80829317
Si       2.70087940       6.42875271       6.26064505       2.46161222       6.06675841      -5.14331605
Si       4.39319298       6.96303546       4.48188529       1.05649484       0.94267798      -1.69529740
Si       6.33953875       7.13703324       8.36243603       3.35439353      -3.90041927      -6.24934264
Si       7.54077761       8.39120050       5.85327163       2.36999690       0.68648581      -2.57043564
Si       6.31859740       4.83180878       1.59659147      -0.98844661      -2.56267787      -1.83785237
Si       5.32312536       9.08046688       5.14268060      -2.51596830      -2.67381562      -1.65274929
Si       4.87615200       6.91325497       2.05937029      -0.66945754      -2.22401392       0.56870271
Si       5.16793450       4.80937393       3.85981637       0.57597529       0.05280860       2.32285801
Si       8.40348149       6.22977548       6.41425362      -1.00343489       7.14716817       1.53125389
Si       7.54607562       4.48161263       7.75857123      -3.51558892       2.63040003      -5.21903812
Si       7.00798298       3.50552446       4.31892174      -3.18154452       1.36407600      -0.33912476
16
Lattice="1.7439050659039483e-16 5.47748410970072 5.47748410970072 5.47748410970072 2.9140779775007323e-16 5.47748410970072 5.47748410970072 5.47748410970072 3.8774317075040437e-16" Properties=species:S:1:pos:R:3:momenta:R:3 pbc="T T T"
Si       1.14446992       2.05776765       2.75799334      -2.18233567      -0.48389774      -1.25834086
Si       3.02345513       6.40732341       7.32961000      -2.22424120       3.72164847       4.96628294
Si       4.02582885       2.37760254       3.41891037      -3.24747809      -1.05667217       1.05875852
Si       8.72825056       9.28726421      10.01922133      -3.98269158       2.16392778      -2.57622708
Si       3.56391887       4.16332298       7.69512585       0.95501198      -5.73180018       2.66225911
Si       3.74665302       7.08934669       5.19729600      -2.83763400      -4.39453734       2.76553316
Si       6.17816664       6.92915493       5.07368868       1.88964122      -2.05625181       1.52254243
Si       7.77260035       6.32282486       8.90348187      -4.24901825       0.37747035       0.16588432
Si       7.48524790       7.84764984       7.01160699      -3.63386327       1.08041081      -3.73445259
Si       5.73908770       3.74773418       2.57010154      -2.23391816       1.17705383      -4.62986364
Si       4.18940038       4.83569427       0.93719164       8.46059565       1.44245856       0.42621275
Si       5.49476092       3.33214761       6.58502608       1.58436480      -2.68422371      -4.47469764
Si       4.68740284       6.05996079       2.99564063      -0.22643933       0.59535846       0.38119714
Si       4.06097111       1.67632422       5.67972562       1.90144261       4.36891007      -1.57545178
Si       2.55671372       4.12118422       2.66225740       8.99492945      -2.49533448       0.51466565
Si       6.46926946       4.54795258       4.75904290       1.03163384       3.97547909       3.78569759
16
Lattice="1.7439050659039483e-16 5.47748410970072 5.47748410970072 5.47748410970072 2.9140779775007323e-16 5.47748410970072 5.47748410970072 5.47748410970072 3.8774317075040437e-16" Properties=species:S:1:pos:R:3:momenta:R:3 pbc="T T T"
Si       2.01297863       1.91625677       2.19143780      -2.13351091       0.34579144       3.37389674
Si       1.84470198       5.05165866       4.95131018      -0.65525977      -0.95075718      -1.80745190
Si       4.88635470       2.37319349       4.47662760       1.92987922      -2.25747951     -10.65920202
Si       8.23267581       4.30095265       4.69636110      -0.01549154       1.84878181       2.72715230
Si       4.88743636       4.92496580       7.10079332       1.17290278      -5.03103538       2.80474128
Si       4.03776445       5.82404418       5.18949436       3.11410156      -0.38285377       2.07570903
Si       4.53260285       8.13247868       4.91970579      -3.57721970      -2.51759580       3.42140621
Si       7.16791306       5.37111599       6.63432809       0.19108583       1.88107506      -1.15188991
Si       7.50613948       7.57362222       7.44466339       3.78557732      -1.35126076       1.28999565
Si       4.87542500       4.47006600       2.99561158      -3.02546041       9.08471262      -3.69240169
Si       6.05336523       9.13283383       6.45827858       2.32558737       3.58238164      -3.82912838
Si       4.18836173       2.68554948       6.75938242       0.46698302       0.29854366      -0.61052349
Si       5.32342590       6.94013028       2.94278627      -0.71143324       1.31795050       1.44830835
Si       3.67080341       0.59755101       3.31031727       1.22468772      -1.58097256       3.33525377
Si       2.54400013       4.11096337       2.88272429      -3.15908349      -2.41546945       0.43994676
Si       7.10224865       7.39787258      10.64209820      -0.93334576      -1.87181232       0.83418730
