16
Lattice="1.7439050659039483e-16 5.47748410970072 5.47748410970072 5.47748410970072 2.9140779775007323e-16 5.47748410970072 5.47748410970072 5.47748410970072 3.8774317075040437e-16" Properties=species:S:1:pos:R:3 pbc="T T T"
Si       1.81330425       1.93622949       2.81724093
Si       5.49423426       5.77943206       9.84490701
Si       6.17599821       3.40236842       6.75082450
Si       7.24337330      10.57097570       7.32253228
Si       4.84938931       5.10347567       7.72561928
Si       5.12680975       3.82015156       2.04415965
Si       2.23721976       5.34756975       4.94138384
Si       3.17289734       7.51283501       4.79690282
Si       3.44003562       3.57538356       3.70207415
Si       4.89187606       7.16864160       6.37771333
Si       9.47048124       5.17187158       6.06574297
Si       7.52655091       4.35707285       5.11207809
Si       8.49071906       7.26608226       6.53960063
Si       8.63687008       8.90811669       8.25573230
Si       4.79102018       2.38633810       5.16500343
Si       6.76011883       6.70103295       5.02880227
16
Lattice="1.7439050659039483e-16 5.47748410970072 5.47748410970072 5.47748410970072 2.9140779775007323e-16 5.47748410970072 5.47748410970072 5.47748410970072 3.8774317075040437e-16" Properties=species:S:1:pos:R:3:momenta:R:3 pbc="T T T"
Si       0.81642922       1.94489439       2.16537117      -4.30814097       0.57192934       3.27197506
Si      10.43102208       9.27282568       9.53107330      -3.44853558      -1.40167630       3.37962892
Si       5.33002786       5.14409967       5.63352173       1.09260074       3.47164370      -0.70936040
Si       6.53489655       5.25848952       1.36833845       8.25827887       3.24093889       5.92132384
Si       5.82394218       5.53641680       8.04772792      -4.29157088      -4.75122789      -3.97761740
Si       3.71911010       4.51394898       2.21187426      -7.93780157       1.04559876      -0.01998534
Si       3.05003757       5.90599247       5.61200492       0.27042360       1.75976734      -0.13879768
Si       7.97986453       6.12415768       8.82325381       4.06566809      -2.57184955      -5.63742190
Si       4.68346016       2.07573921       3.05465868       4.43719788      -0.02532952       3.19878839
Si       2.98251906       2.43196656       1.42622262      -3.23301842       1.45014635      -1.78581436
Si       9.95587214       5.32323703       5.70065274       4.56828148      -2.51897454      -2.32589154
Si       6.20252007       3.94546468       3.36476452      -0.56923534       4.73208815      -6.72959369
Si       3.35817288       1.76172468       4.95028356       4.51221274       0.04194527       1.94223004
Si       8.45347224       8.42887105       8.51280357       1.99519042      -0.78274328       1.67208131
Si       4.40556342       3.04372172       6.60111439      -3.32231076       0.90434841       2.12904396
Si       6.39398810       7.34105889       4.53168362      -2.08924034      -5.16660514      -0.19058919
16
Lattice="1.7439050659039483e-16 5.47748410970072 5.47748410970072 5.47748410970072 2.9140779775007323e-16 5.47748410970072 5.47748410970072 5.47748410970072 3.8774317075040437e-16" Properties=species:S:1:pos:R:3:momenta:R:3 pbc="T T T"
Si       2.79617617       2.67381243       1.80497111      -0.17676452       1.82531684       2.70007444
Si       6.29220976       6.29231334       9.13015484      -2.57633074       3.85316460       3.94058880
Si       6.28001530       3.68484693       6.28829600      -4.81170847      -4.63773394       3.45697360
Si       6.72572373       9.75512609       7.76739462       4.79391686       2.00673081       0.20556622
Si       4.98278569       4.70323575       8.01167624      -2.90394984      -2.67069257      -2.79325745
Si       4.53897145       4.10744234       1.05385851      -3.69238662      -0.05015739       1.11834438
Si       2.71668265       5.32616243       4.71622665       3.80589631       0.06805445       2.16698576
Si       4.46732944       6.44850644       3.71717031       5.62172487       2.38509137       0.99320239
Si       3.07303161       3.06558085       4.10782804      -0.49756956      -1.20505995      -3.10073457
Si       2.98821621       5.71679561       7.02056886      -2.12058508       5.62265408       1.76980659
Si       9.41332249       6.37739005       6.91193128       2.18437283      -0.96999545      -1.07804638
Si       6.37323558       5.20147259       4.44692391       2.31527176      -0.32577302      -4.77473641
Si       7.32719390       7.48430244       7.38709086      -7.00767220       1.93988568      -1.87791766
Si       4.89529681       8.66158403       4.37458316       1.63177685       0.12899322      -1.01328875
Si       4.97241494       2.09496954       5.17064073       2.79793859      -2.33732147      -0.77551586
Si       6.80080832       7.41403640       5.10351824       0.63606896      -5.63315725      -0.93804510
16
Lattice="1.7439050659039483e-16 5.47748410970072 5.47748410970072 5.47748410970072 2.9140779775007323e-16 5.47748410970072 5.47748410970072 5.47748410970072 3.8774317075040437e-16" Properties=species:S:1:pos:R:3:momenta:R:3 pbc="T T T"
Si       2.06909673       2.04196475       1.44711088      -4.16237551       5.18416056       6.45001996
Si       6.45601676       7.02814266       8.05950915       1.93675084      -2.89038988      -2.50447317
Si       5.84322141       3.28783395       5.91265134       5.62832650      -0.51957024       0.17228653
Si       6.55495898       5.55665442       2.42646346      -1.44210209      -3.89493109      -0.35856695
Si       4.26359320       3.83087678       7.49080661       4.45934023       5.76412182       3.49788668
Si       4.25974389       5.24280263       2.01677369      -1.11230356       3.73704495       3.22785151
Si       2.68290376       5.78373455       3.59668650      -3.91649772       0.76906147       0.70548436
Si       3.69888238       7.03137180       5.29753473      -1.91186107      -2.07589138      -5.08488245
Si       3.13872479       3.32357412       3.13935533      -0.77892173       4.31930216      -2.05316589
Si       5.38937413       5.74692876       6.36616572       0.57465339      -1.27441001       0.68033230
Si       9.32823859       5.55558463       5.19849769      -3.32967129      -0.51024602      -3.84520113
Si       7.05620225       6.06728241       4.69869357      -3.44000530      -2.17154386      -5.05295876
Si       7.44583499       8.99237379       7.08157582       1.73431973       7.20858271       1.85822083
Si      10.15556793       8.99388608       9.78507148      -2.01876947      -4.38596850       1.94385822
Si       4.82902489       2.04237190       4.20963650       2.66043024      -6.59254267      -0.27193208
Si       6.94951347       8.48219403       4.80881679       5.11868682      -2.66678002       0.63524004
16
Lattice="1.7439050659039483e-16 5.47748410970072 5.47748410970072 5.47748410970072 2.9140779775007323e-16 5.47748410970072 5.47748410970072 5.47748410970072 3.8774317075040437e-16" Properties=species:S:1:pos:R:3:momenta:R:3 pbc="T T T"
Si       2.51005777       3.54731173       2.20796903      -2.74422929       3.93311324       1.17680832
Si       0.87765804       4.04687036       4.05764214       5.42634140      -2.26037789      -0.39778713
Si       6.85178013       2.19139918       6.11254291       0.34884587      -0.00247328      -2.06476672
Si       7.19298553       4.42972149       2.90638166      -0.52006085      -2.48671387       1.87333303
Si       4.99643502       3.99328948       6.24661994       6.30552129       7.28634568      -3.50419169
Si       6.11633651       5.37293296       0.94122705       4.17499384      -0.99995710      -4.29409680
Si       7.02546927       6.37987128       9.09537710      -1.47246475      -0.25625342      -1.75873317
Si       3.34923483       7.34170652       4.78377837      -7.45026120      -0.39468965      -0.00902626
Si       4.07386815       1.87355184       2.87724212       1.24110812      -2.04374497      -2.26458457
Si       4.89727796       6.39491788       6.27383144      -0.01939451       2.09871286       5.93563895
Si       9.19643324       5.28189884       6.42062154       2.06313203      -1.50829174       4.83308495
Si       8.24089927       5.97777446       4.32361779      -8.23470892      -3.85736428       2.13872549
Si       8.24959825       7.26139279       7.27472320       0.13935324      -1.65510785      -6.89068721
Si       9.48814217       8.91866958       8.47671123      -7.29867915      -2.35020785       3.00503491
Si       5.72194484       2.99654829       4.11495270       2.95768262      -0.50748135      -2.30670268
Si       6.81026129       7.52223646       5.42211104       5.08282027       5.00449146       4.52795057
16
Lattice="1.7439050659039483e-16 5.47748410970072 5.47748410970072 5.47748410970072 2.9140779775007323e-16 5.47748410970072 5.47748410970072 5.47748410970072 3.8774317075040437e-16" Properties=species:S:1:pos:R:3:momenta:R:3 pbc="T T T"
Si       1.31095976       2.11756337       1.92792865       0.63179533       1.55923643      -0.85690361
Si       4.73308176       4.79188235       9.01677820       2.71220725       1.16231739      -2.97644325
Si       6.10680356       3.53836983       5.72688180       4.19081222      -3.23739221      -1.46990294
Si       7.02293693       9.22356474       7.31960527      -1.68575669       0.02269929      -2.08073128
Si       3.91528342       4.22809134       6.50290102       5.48914192       1.06138394       7.67840323
Si       5.45771577       5.57569661       2.07634302      -4.14026821      -3.01865305      -1.06497283
Si       1.57993473       4.27567790       3.28800395       1.67423271       5.62963301       0.10810353
Si       4.43505391       6.25638403       5.35194753       4.77275943       1.99547697      -0.85014816
Si       2.91501976       2.87163929       4.68626287      -2.94171296       2.50648408      -2.58402205
Si       3.59714322       2.33010694       1.35245003      -3.40514260      -0.34729909      -0.85066644
Si       4.12732299       4.48025790       0.40529860      -1.99690558       2.62197927       2.98335824
Si       7.50344827       5.22850465       6.52771882      -1.40257855      -1.48959975      -0.70259355
Si       3.06955578       6.26944851       3.42768871      -2.91140488      -7.11269835      -1.35715810
Si       6.74644935       7.90620369       9.21716097      -1.59959805      -1.27005428      -1.21815080
Si       4.53825882       1.67929958       3.39996361      -1.12542170      -0.95661085       2.07713081
Si       6.62947780       7.27991831       5.83093209       1.73784036       0.87309718       3.16469719
16
Lattice="1.7439050659039483e-16 5.47748410970072 5.47748410970072 5.47748410970072 2.9140779775007323e-16 5.47748410970072 5.47748410970072 5.47748410970072 3.8774317075040437e-16" Properties=species:S:1:pos:R:3:momenta:R:3 pbc="T T T"
Si       2.02600681       2.85278850       2.68727195       5.07829082      -6.84644458      -0.78682222
Si       5.58101457       5.88831355      10.46377206       0.47310110      -1.56889201      -1.95899574
Si       7.41721619       4.83678427       6.68646579      -3.22317478      -0.90892549      -3.58076107
Si       7.42435236       5.69871533       2.82192393      -6.33234900      -3.85285520       3.50828752
Si       8.08039032       9.36037339       6.69692551      -1.83181235      -1.85572945       0.34544875
Si       5.21105463       5.75403220       1.84441356       1.09586863       3.04828294       0.20914296
Si       3.88011701       4.82664350       4.91834802       2.97021759       7.23545526      -5.01290115
Si       2.80813298       6.81883741       4.44730196       6.01496779      -3.09281929       0.70031206
Si       4.20610057       3.74692523       2.83013432      -9.18150552       2.03926519       3.77431899
Si       4.32276114       8.54210194       4.61156810       0.00825213       1.89730900      -3.47468161
Si       8.82346168       5.17326925       4.77729409       0.95575318      -4.73858880       2.92445973
Si       6.19478935       4.58435587       4.70074372      -0.57580353      -1.72611198       4.65518323
Si       7.42187627       7.01126414       7.65258416      -5.45842920       2.55528382       0.03402768
Si       9.66053741       7.83394279       7.84002860       2.82910939       2.34209621      -4.13076752
Si       5.95453078       2.40354292       3.78963011       3.02061431       3.67320425       3.50159359
Si       1.10855610       3.67568699       4.76694339       4.15689945       1.79947014      -0.70784520
16
Lattice="1.7439050659039483e-16 5.47748410970072 5.47748410970072 5.47748410970072 2.9140779775007323e-16 5.47748410970072 5.47748410970072 5.47748410970072 3.8774317075040437e-16" Properties=species:S:1:pos:R:3:momenta:R:3 pbc="T T T"
Si       3.19548538       2.41527972       2.98953287      -1.10526915      -0.45893934      -1.73108482
Si       5.68698328       0.85497486       5.84759011       3.97585862      -6.65937254      -1.83296179
Si       7.43695751       4.25446966       7.61688525       1.43510797       4.67614857      -2.09702328
Si       7.18623567       5.40007130       1.89734712      -3.02848406       2.21093053       2.98504633
Si       5.08407122       4.04647482       8.00286617       1.99971016      -2.21280486      -1.28608101
Si       6.24224393       8.93306679       6.41332232      -2.52475012      -1.65582980       0.74954040
Si       8.43510427       6.21270976       8.59546597      -3.69466059       0.21531923       1.20464769
Si       6.95862071       7.59789305       9.84135856      -2.60334292       0.00882132       2.89896105
Si       4.58961251       5.30264398       4.55594125       1.87585853       4.23733032       3.34307540
Si       3.94964005       5.79662991       6.88344195       1.64649767       2.34374784      -4.42982608
Si      10.22735584       9.85697355      10.33963147       1.94877558       1.45683839      -1.24241924
Si       7.95611301       4.03323636       5.33576015       0.76974157      -3.64122066       4.52803673
Si       7.87759691       7.67637821       5.26347964      -2.71171084      -1.80310079      -4.90571431
Si       9.53976523       7.55163803       6.98952044       4.33016807      -2.57541932       2.75731831
Si       5.33263896       3.29067013       3.15427955       0.09410175      -0.17100666       1.35739332
Si       6.85492603       5.78446711       4.24137877      -2.40760222       4.02855780      -2.29890870
16
Lattice="1.7439050659039483e-16 5.47748410970072 5.47748410970072 5.47748410970072 2.9140779775007323e-16 5.47748410970072 5.47748410970072 5.47748410970072 3.8774317075040437e-16" Properties=species:S:1:pos:R:3:momenta:R:3 pbc="T T T"
Si       4.94819166       7.95841458       3.38541693      -1.57778622       0.04747827      -4.30099663
Si       6.31650585       6.59157458      10.22986388       1.64686596      -0.27890228       0.92535863
Si       6.31788731       3.85026108       7.49220092       4.38470358       1.14512653       1.66945803
Si       7.68578857       5.22225676       3.38390806      -0.49798304      -2.45567007      -2.43907686
Si       4.94726300       5.21940742       6.12366811       0.30079135       0.09590310       4.62916083
Si       6.31734239       9.32982948       7.49215419      -0.73372403       5.16087339       4.66531344
Si       2.20888528       5.21933342       3.38529560       0.26119174      -2.26620664       6.70036082
Si       2.21013067       2.48251109       0.64371136      -4.19983335       1.42059000      -2.89153982
Si       3.57852609       3.84932296       4.75400379      -3.25717777      -1.65070266      -1.04413652
Si       3.57776667       6.58973298       7.49109255       0.33229434      -0.74705917       0.31412519
Si       4.94835441       5.22185499       0.64528996       1.26316907      -3.48374437      -1.77961132
Si       9.05668322       9.33068213      10.22978238       0.09333740       1.19994082      -3.96481871
Si       7.68705527       7.95885748       6.12500843      -2.12220884       1.88810072       1.57130528
Si       9.05598280       6.58888029       7.49358359      -0.83511593       1.95870882      -0.91920092
Si       4.94737937       2.48222169       3.38234080      -0.05961495      -1.83970448      -3.91225927
Si       6.31715561       6.58992044       4.75551283       5.00109068      -0.19473197       0.77655783
16
Lattice="1.7439050659039483e-16 5.47748410970072 5.47748410970072 5.47748410970072 2.9140779775007323e-16 5.47748410970072 5.47748410970072 5.47748410970072 3.8774317075040437e-16" Properties=species:S:1:pos:R:3:momenta:R:3 pbc="T T T"
Si       0.42490710       1.34925140       1.25939046       1.65857906      -3.74743156      -4.72291751
Si       6.05551640       6.47740105       9.86915116      -0.44142239       1.00826110      -0.57464543
Si       1.27158560       3.35930707       2.14730934       0.82423021      -4.88233874       3.40540025
Si       2.01841306       5.21461265       7.19623317       0.30245926      -2.30460907       3.97617520
Si       6.15789038       5.36130689       6.67157743       3.61285729      -1.46595806       4.64819211
Si       4.50829031       8.35588162       6.21678280      -4.16729223      -4.79553790       0.18215614
Si       0.36869233       4.09304117       4.16118251      -5.18865017      -3.15234939      -3.94756192
Si       8.95917152       9.04722299       9.69885081       5.52861141       5.87238354      -4.01150954
Si       3.51095451       3.78732200       2.62618987       2.44658007       2.42334385      -0.10324102
Si       4.09260909       6.24199374       7.14035262      -2.83169213       3.19233287       5.89961878
Si       4.19663827       6.02024446       2.77642166       0.88355522      -2.46629301       2.74964081
Si       7.82737862       5.61960121       4.03257054       0.23175145      -0.53000653      -3.19403256
Si       6.90992732       8.55157821       6.35198449       0.15788015      -3.83340713      -2.67951927
Si       7.75123379       7.39367465       8.40858570       1.41427060      -1.75179455      -3.06501956
Si       3.95943717       1.83730180       3.84393555       0.42229014       5.41230201       0.49093630
Si       5.67580035       6.29783633       4.61231527      -4.85400793      11.02110257       0.94632722
16
Lattice="1.7439050659039483e-16 5.47748410970072 5.47748410970072 5.47748410970072 2.9140779775007323e-16 5.47748410970072 5.47748410970072 5.47748410970072 3.8774317075040437e-16" Properties=species:S:1:pos:R:3:momenta:R:3 pbc="T T T"
Si       7.46320843       6.40080658       3.37094507       0.06813463       4.59633909      -2.00286854
Si       5.42287835       5.68838223      10.28663931       0.10435938      -0.12697044      -5.63872130
Si       6.09508053       3.15502637       6.77980092       5.52041022       5.62715172      -0.31019336
Si       5.84557620       6.30294901       1.64802523       5.09380633      -2.05083435       0.23489684
Si       3.76997882       4.91118397       5.34180084      -2.02396109      -6.74975385       0.47330248
Si       3.85858616       2.16878534       2.48658023       0.52109966      -3.12038183      -4.36507513
Si       1.67058751       4.20658459       4.64098796       0.63638922       3.03877923       2.01248380
Si       7.55842786       3.00227273       4.91833906      -1.99324701      -0.39341317       1.86976691
Si       2.44754072       3.99140666       2.49182950      -1.19991981       0.13246197       2.14845204
Si       4.03717208       7.20042985       5.65886388      -1.89267702      -4.83276967       2.42916839
Si       9.11157067       5.66896660       6.96647981      -4.53755326      -0.52669631      -2.17907342
Si       8.89377795      10.16069709       9.43866166      -2.01590565      -0.11991859       0.13849295
Si       7.65956470       7.44501770       7.12105537       1.27552019       5.21501811      -2.02761793
Si       3.83517893       3.70170641       7.31162184      -1.61254065      -1.85003603       2.39006103
Si       6.06546615       7.46159582       8.87814853      -1.07204062      -3.88131434       5.77573025
Si       6.38630310       7.54176631       5.15053827       3.12812548       5.04233846      -0.94880501
16
Lattice="1.7439050659039483e-16 5.47748410970072 5.47748410970072 5.47748410970072 2.9140779775007323e-16 5.47748410970072 5.47748410970072 5.47748410970072 3.8774317075040437e-16" Properties=species:S:1:pos:R:3:momenta:R:3 pbc="T T T"
Si       2.62324674       1.17540138       2.73019162       0.25289425      -2.75108659       1.87360213
Si       5.79365802       9.06223336       4.96793514      -2.05947171       5.82559214       6.40181994
Si       5.93128533       5.08812931       5.25952255      -4.21642220       2.36799858       1.78687710
Si       5.18349243       6.00900307       2.06221233      -2.66236888       0.50204511      -2.36405383
Si       3.92914905       4.16714883       5.98151120       0.01608504      -2.21818702       0.45353921
Si       6.31911027       8.18013549       7.66601643      -0.50727931       1.46526291      -3.17695575
Si       2.14967501       5.10793818       4.64325265       1.49989353       8.74168176      -1.08204296
Si       6.98287813       7.50118208       9.97896273       2.06043430      -6.63781877      -3.86988681
Si       3.17158370       4.91061313       2.55162999       0.23452233      -3.58079001       3.77485053
Si       3.91837084       2.86276597       1.68944775       0.84323358      -3.38328185       0.24994260
Si       8.78504773       6.14333804       4.91736209       0.48627152       2.34204328       4.34647473
Si       8.88530241       9.20635960      10.23858367       6.65663563       0.16793873       1.75600146
Si       7.25921611       6.22965952       6.72803690       1.23505082       0.40550703      -3.32441939
Si       8.10182204       9.78665566       7.91557139      -2.77043177       1.70410004      -1.72705283
Si       4.98033436       2.04079716       5.77393221       2.87089434      -0.61012630      -4.06959603
Si       6.10672600       7.01370058       3.90866472      -3.93994145      -4.34087903      -1.02910010
16
Lattice="1.7439050659039483e-16 5.47748410970072 5.47748410970072 5.47748410970072 2.9140779775007323e-16 5.47748410970072 5.47748410970072 5.47748410970072 3.8774317075040437e-16" Properties=species:S:1:pos:R:3:momenta:R:3 pbc="T T T"
Si       5.65049756       8.06572605       3.51049145      -2.17331195      -1.78427078       0.24098015
Si       2.04490316       3.72252705       4.46336521       1.37276527       5.37796617      -0.98371487
Si       5.62408681       4.74738841       6.29273119       3.18994544      -0.39056794       2.09866408
Si       6.24887322       6.29809666       2.01588639      -0.78424150       0.14994672       0.18020662
Si       3.13962317       0.96239442       2.38031881      -1.02443362       2.50101713       5.30790431
Si       5.77563255       3.74165180       2.31144386       3.58592198       3.62108336      -2.05135565
Si       2.61897575       5.89782782       3.66261311      -2.67544640      -4.18792005       0.40759436
Si       7.12364077       8.06458423       9.57232476      -5.24561961      -1.10327939      -2.92469220
Si       3.99598407       2.56347553       3.88511278      -1.54921794      -1.60706995       2.21812916
Si       4.19827468       8.03134196       6.37774531      -0.08489196       1.44515705       1.39920519
Si       7.70636597       5.89748180       6.75978082       5.58194993       3.22779808      -0.86938130
Si       8.58646630       4.21749528       5.09415114      -1.49756426      -2.07694759      -0.33275029
Si       7.77433913       8.41647738       6.69687220       0.38889980      -2.59919484       0.47307768
Si       3.99324525       4.17533831       7.98945965      -2.11317623       0.00552206      -2.25544827
Si       5.49758517       2.36268568       5.72650293       2.49038066      -2.92453853      -4.35684757
Si       4.66492051       6.36560077       4.79654966       0.53804041       0.34529847       1.44842862
16
Lattice="1.7439050659039483e-16 5.47748410970072 5.47748410970072 5.47748410970072 2.9140779775007323e-16 5.47748410970072 5.47748410970072 5.47748410970072 3.8774317075040437e-16" Properties=species:S:1:pos:R:3:momenta:R:3 pbc="T T T"
Si       1.27666113       1.67413276       1.62703587      -3.96741463       0.33263178       2.92370671
Si       6.45128859       4.95705653       9.34484482       0.35887090       2.44876535       0.40205963
Si       6.02570302       3.58263342       5.87930182      -0.04876127      -1.28240606      -6.44029176
Si       3.33141036       5.76204627       6.82733061       0.68728207       3.76468307       1.74403492
Si       5.88372178       5.62501636       7.15368596       1.86412500      -3.98205784      -5.08372533
Si       6.29265818       8.92633721       6.77942641       0.12858105      -2.29964847      -4.18908581
Si       3.20388058       5.54092545       4.42094149       1.52241357       3.12875648      -1.72231615
Si       9.33145966       7.77709955       9.35278976      -5.28390404      -4.15688586       1.57438312
Si       4.24558598       3.39437397       4.27512597      -0.49437513      -2.91891332       4.83717467
Si       4.35144836       2.42674302       2.06716181       2.65417462      -4.70368771       4.39625544
Si       8.65543384       5.68610531       6.41463508       3.46256902       4.98903136       1.13595514
Si       8.40566109       3.42218916       5.74644857       0.41128449       4.39174664       3.71686191
Si       7.94485156       7.68168700       5.35970829      -1.67401433       1.18813973       1.04198433
Si       8.48793789       8.98074618       7.50033733      -0.64789242       0.28184570      -3.87900335
Si       5.49627938       5.51564297       0.51058546       2.98930760       2.31991193      -3.11130465
Si       6.21440086       8.05484209       3.75347412      -1.96224650      -3.50191278       2.65331119
16
Lattice="1.7439050659039483e-16 5.47748410970072 5.47748410970072 5.47748410970072 2.9140779775007323e-16 5.47748410970072 5.47748410970072 5.47748410970072 3.8774317075040437e-16" Properties=species:S:1:pos:R:3:momenta:R:3 pbc="T T T"
Si       1.90784056       2.48693207       2.51476102      -2.88298730      -4.05773282      -0.48255970
Si       0.95512577       3.71409991       4.30473727      -2.20029229      -1.91627208       2.12292563
Si       5.36839329       2.25343231       6.76501852       0.85484263       0.00837645       2.30117989
Si       8.21151554       4.83756861       3.43469998       0.43410535       3.32247181      -4.48862917
Si       5.59200583       4.58646891       5.96584468      -3.66615310       4.48924634      -0.30915161
Si       5.49506786       3.25296916       2.38378308       4.64313227      -3.03539663      -0.20096166
Si       7.22822785       5.84868802       9.20991941      -0.34190948      -3.93518840       2.85121376
Si       4.08966860       6.71930465       3.35256442      -6.15327397      -0.26651832       0.87020102
Si       3.18355702       1.44729997       4.24921039      -4.72146365       4.12553217       1.60971817
Si       9.58488896       8.77447726      10.01580849      -2.04661736      -0.22825000      -5.03251475
Si       3.45634328       3.73593202       1.28763711       6.10447545      -3.06359439       1.13710153
Si       7.46075998       5.73129651       6.84982897      -2.24386574       1.47424786      -2.28334486
Si       7.25440596       8.13323784       6.25708593       5.03085006       3.87067572      -3.18544470
Si       3.53240022       4.07510585       6.86907853       2.66618708       1.06594775       2.24177964
Si       5.49114950       1.86709895       4.35273593       2.05241984      -3.03529215       2.49848354
Si       5.83206383       5.11121288       3.72263551       2.47055021       1.18174669       0.35000328
16
Lattice="1.7439050659039483e-16 5.47748410970072 5.47748410970072 5.47748410970072 2.9140779775007323e-16 5.47748410970072 5.47748410970072 5.47748410970072 3.8774317075040437e-16" Properties=species:S:1:pos:R:3:momenta:R:3 pbc="T T T"
Si       6.33320330       6.77098007       3.00919825       3.82245578      -2.50514644       0.37490984
Si       7.32056952       5.45191377       8.33982431       2.06126342       2.27946978      -2.66792273
Si       5.71039844       2.03419579       6.30567847      -2.88422823      -3.39918953      -4.66889589
Si       7.02954135       4.56103756       2.49647637       2.78950291      -0.91641183       1.04144567
Si       3.87018247       4.49683863       7.65393895      -1.41240388       9.92406663       3.24740107
Si       6.01508351       9.23752774       5.95622716       2.83104363      -2.93966500       0.61453925
Si       1.34451332       5.82400228       5.10843861       3.07896816      -1.00779133       1.33812703
Si       3.45805411       6.29838278       6.10711071       0.55297633      -2.88537897      -1.46633460
Si       3.73035954       4.04099936       3.03718119      -9.10568898      -2.40789349       2.62791462
Si       5.50678376       5.89860626       5.04153250       2.47550542       0.32048519      -4.72461391
Si       3.72414280       3.17228008       0.86035996      -6.60311606      -3.09243260      -2.16370493
Si       6.97161697       4.08549177       6.32081777       4.54772091      -0.59544137      -2.13660371
Si       6.89266923       7.02266718       6.66252761      -0.51202199      -0.05287221      -1.82158628
Si       8.92679312       8.07459236       6.16319632      -1.19049890       1.18330948       2.10093520
Si       5.73609737       3.66945499       4.24428680      -0.48103999       2.56332998      -0.22640660
Si       2.07340525       2.89112253       4.22855428       0.02956146       3.53156171       8.53079598
16
Lattice="1.7439050659039483e-16 5.47748410970072 5.47748410970072 5.47748410970072 2.9140779775007323e-16 5.47748410970072 5.47748410970072 5.47748410970072 3.8774317075040437e-16" Properties=species:S:1:pos:R:3:momenta:R:3 pbc="T T T"
Si       2.48921956       1.98163431       2.78318863      -4.89742162       0.14068503      -5.36717863
Si       5.74759448       5.61028422       9.17111523       2.31016902      -3.83412565      -2.32780018
Si       7.03805172       3.81564008       7.07414360       2.75641146      -1.09353918       8.28253413
Si       7.45134497       9.49544878       8.32442825      -2.03997220      -2.54960369       5.93838334
Si       3.80331100       5.45554496       7.75776088       0.59862565      -1.48661320      -1.14597937
Si       7.17101679       7.95915696       6.49391736      -1.57665116       0.40221184       3.95659917
Si       2.55016891       5.20497157       4.30865058       5.65959807       0.12920132       2.94464756
Si       3.40035743       6.76847003       5.77535649      -1.99408012       2.10230854      -2.24633547
Si       3.22395219       3.00870133       4.74121741      -1.60481863       4.92112494       4.93351894
Si       5.44087429       7.49950850       4.95404351      -0.72336815      -0.83349780      -7.52863025
Si      10.09606611       6.66853128       7.25803741       0.34681060      -0.34441212       2.37601023
Si       7.32049580       2.93471605       4.95689054       2.05541287       4.49933835      -0.38720834
Si       7.86065261       5.94748594       7.55009769      -2.65491042      -2.14856400      -2.40191466
Si       5.07354448       3.33121555       8.39530238      -0.25299401       3.60055982      -7.29592606
Si       5.24330770       1.87982221       5.13033001       0.88547742      -2.21443284       0.38028075
Si       6.21094012       5.96896137       3.29332161       1.13171122      -1.29064135      -0.11100117
16
Lattice="1.7439050659039483e-16 5.47748410970072 5.47748410970072 5.47748410970072 2.9140779775007323e-16 5.47748410970072 5.47748410970072 5.47748410970072 3.8774317075040437e-16" Properties=species:S:1:pos:R:3:momenta:R:3 pbc="T T T"
Si       1.89554262       2.77036978       1.29237383       1.07694931       1.40083220      -0.92342087
Si       6.55881663       5.59737887       9.05522812      -0.19046487      -3.34607049       0.25226386
Si       5.10941209       2.21057443       6.86168779       2.04488316      -3.68855120      -1.65350763
Si       3.29734713       6.42204056       6.95857868      -4.01692165       3.84594650      -3.39066989
Si       4.12822344       5.58586495       8.99235851      -0.26611516      -0.77096900      -2.85196526
Si       6.16738242       9.04745867       6.81358824      -4.77861065       1.08328275      -0.58392367
Si       2.15113550       4.90762086       5.56854539      -2.10112906       2.44187525       0.52541586
Si       8.45182526       8.86727828      10.06675889      -3.42291675      -0.27925916       3.64507478
Si       3.92177544       4.22827185       4.24537728       2.82033551       2.95120605      -0.74412938
Si       4.75518441       7.63413781       5.54107224      -0.28747390      -5.52493108       4.43466298
Si       4.95641878       5.42869979       2.16234077       3.86732364       0.05065792      -0.75447286
Si       7.85822120       5.59893931       5.20858818       1.51275773      -3.63925347       1.83581187
Si       8.12937319       4.84281608       7.48028148       0.83441947      -1.68652503       0.28532006
Si       6.79440010       7.90764313       8.78025711      -0.24297556       1.20914666      -1.62372520
Si       4.79904570       2.14223600       4.55436469       2.68729604       5.74636101       3.05541879
Si       5.66931016       5.81624690       4.38640042       0.46264275       0.20625110      -1.50815345
16
Lattice="1.7439050659039483e-16 5.47748410970072 5.47748410970072 5.47748410970072 2.9140779775007323e-16 5.47748410970072 5.47748410970072 5.47748410970072 3.8774317075040437e-16" Properties=species:S:1:pos:R:3:momenta:R:3 pbc="T T T"
Si       1.61477762       3.26730499       3.17461792       2.20861266       2.00751250      -3.25782278
Si       6.80679470       5.66687742       8.91947060      -0.36906732       3.64164774      -3.05032107
Si       6.24828000       2.69010255       6.52166484      -1.38026726      -4.52731959       5.42160830
Si       3.54206812       5.08012686       6.35438416       4.10547974      -9.75602879      -1.28600672
Si       4.43347892       5.88758092       8.38726554       0.26478881      -0.23006245       2.20726519
Si       5.33480395       8.39172682       6.96108829       0.95753256      -2.37113677       1.01982617
Si       1.40075234       6.00052189       5.78532582       4.67056229      -0.94240683      -0.49343825
Si       9.17022957       9.78596301       9.95301609      -2.39330368       0.17851777      -3.72868589
Si       3.89528083       2.64193552       3.35379307       1.83952782      -2.36214741       0.13809430
Si       5.39182440       7.91176402       4.64904151      -6.28691458       3.78127864       1.75572996
Si       4.83043289       5.07325129       0.91170265      -4.75521444      -0.96703071       1.86828210
Si       6.80068422       4.01353091       4.64892138      -2.10283893      -4.46035573      -3.82017778
Si       3.63033647       6.03113173       2.63163368       1.11178123       9.49184386       9.25991451
Si       7.16293254       8.03781847       8.30159180       3.38613924       0.62115032      -3.56581507
Si       9.40450664       8.41570863       7.40869540       2.45727230       3.52824562       2.48518170
Si       4.97623083       5.58971632       4.52810473      -3.71409045       2.36629181      -4.95363467
16
Lattice="1.7439050659039483e-16 5.47748410970072 5.47748410970072 5.47748410970072 2.9140779775007323e-16 5.47748410970072 5.47748410970072 5.47748410970072 3.8774317075040437e-16" Properties=species:S:1:pos:R:3:momenta:R:3 pbc="T T T"
Si       2.15167773       1.27431844       1.91062000       2.61505805       1.02145572      -2.50867220
Si       7.77875165       6.27688331       8.92527319      -0.17411809       4.67161173      -1.58315254
Si       7.28624729       3.43587651       6.46522775      -0.62286326      -1.51231716      -4.85356863
Si       2.89689129       3.48258943       6.23763625      -0.33263363      -0.27187529      -3.84699590
Si       4.18898716       6.00597597       8.48901417       3.93778154      -0.83729872       3.27382014
Si       4.15553931       3.84042408       1.42600273      -4.39479888       0.98166803       0.35338632
Si       1.54600308       5.34569093       5.56725877       2.41087538       3.24034093      -0.91197479
Si       4.38346092       7.25346872       4.09033923       3.43326576       3.09467517       2.87337518
Si       5.25880675       4.26317656       3.54952022       1.38043444      -2.55144407       1.47360653
Si       5.09145066       7.02087424       6.42106894      -5.91888668       2.77441633      -4.80790524
Si      10.09430165       5.67758805       5.41782121      -1.83321611       0.40429321       4.06267411
Si       7.13466901       8.46426478       9.61120919       1.12293149      -4.69057066       3.16997120
Si       7.53823763       6.73164629       6.08825640      -4.97489485      -6.04180959       0.08602813
Si       9.07142014       9.20942663       8.47815973      -1.21558785      -1.59199882       2.27540693
Si       5.06895517       4.45901580       5.95132164       4.19101898       2.29743963       2.60937774
Si       6.47549872       6.26635752       3.86158807       0.37563371      -0.98858643      -1.66537698
16
Lattice="1.7439050659039483e-16 5.47748410970072 5.47748410970072 5.47748410970072 2.9140779775007323e-16 5.47748410970072 5.47748410970072 5.47748410970072 3.8774317075040437e-16" Properties=species:S:1:pos:R:3:momenta:R:3 pbc="T T T"
Si       1.62924884       1.41488635       3.01313040       2.11094010       0.24011617      -5.69843230
Si       5.52840215       6.69295181       9.49231115      -0.29903021      -2.43647334       3.56812013
Si       1.71168187       3.56928309       1.87409920      -2.34558770      -6.92756741      -1.42903251
Si       6.95454856      10.18724587       7.36668420       3.95465471       7.87451563      -0.42735292
Si       3.84784270       6.11900861       8.00910627       2.07319768       3.23172046      -0.98648838
Si       4.02547738       3.91048540       1.50591244       2.70378690       4.69252618       3.63107124
Si       7.32804585       5.43842078       8.76809827      -8.44078052      -2.32653503       3.69075109
Si       3.87316033       6.10554881       4.19841879       5.67040538       1.64785986      -2.18293729
Si       5.53956333       3.51892724       3.39579084       4.19091101       1.32757193      -2.18337890
Si       4.49912569       7.30378609       6.08156394      -6.71602514       1.79456920      -2.32989754
Si       5.17041423       5.83901787       0.69805786      -2.20271011      -3.84300237       2.47071950
Si       5.67151163       4.42848308       5.55788241       0.09077771      -3.06003027      -0.65711082
Si       8.32514710       6.39439216       6.82555275       4.32328005       0.72557457       2.33744441
Si       3.75727799       3.97949741       7.00175887      -4.75901898      -6.12774679       0.89097309
Si      10.17253641       7.47683678       7.91792847       2.62764487       2.42180074       1.43796222
Si       6.60942999       6.62880590       5.30653750      -2.98244577       0.76510047      -2.13241102
16
Lattice="1.7439050659039483e-16 5.47748410970072 5.47748410970072 5.47748410970072 2.9140779775007323e-16 5.47748410970072 5.47748410970072 5.47748410970072 3.8774317075040437e-16" Properties=species:S:1:pos:R:3:momenta:R:3 pbc="T T T"
Si       3.24009416       2.03275447       2.00330590       2.73327393      -3.76534847       2.14121354
Si       6.20614561       6.98211239       9.74569145      -3.78651469      -0.86540036      -2.29104220
Si       1.39649991       3.59532051       3.06057856      -0.41203761       3.98932669       2.84598699
Si       6.19082742       4.86314037       2.02120243       2.55779461      -1.87129973      -1.97393405
Si       2.96655047       5.22509114       8.08562709      -4.56438024       2.14299389       1.64949144
Si       4.98960414       3.18795278       3.19677329       1.66854108      -8.10982796      -2.93093338
Si       5.81347319       9.34043129       5.32728123       0.36182117      -4.51296999      -0.09511910
Si       4.12885731       6.53106326       4.35745598       0.65195528      -1.37904149       2.02067830
Si       3.34889495       4.33773959       4.37272475      -2.81624604       1.12247841      -0.39322612
Si       5.37754673       7.12386554       6.22760629       4.21905742       0.05237637       2.25423239
Si       9.07745365       4.77255082       4.85659560       1.83812174       3.76812555      -2.62588847
Si       8.07883591       8.07624169      10.72708554      -1.71261161       3.93904816       1.13459389
Si       8.76747658       6.57616389       6.51233326       2.81027600      -0.18092595      -1.86299519
Si       3.00451934       3.47875492       6.47956686      -3.49430963       8.31646796      -1.85973120
Si       5.23106889       7.01288336       2.34650193       1.91010791       1.13086504       0.36678156
Si       6.82556579       5.87151122       7.69250322      -1.96484932      -3.77686813       1.61989158
16
Lattice="1.7439050659039483e-16 5.47748410970072 5.47748410970072 5.47748410970072 2.9140779775007323e-16 5.47748410970072 5.47748410970072 5.47748410970072 3.8774317075040437e-16" Properties=species:S:1:pos:R:3:momenta:R:3 pbc="T T T"
Si       7.18536633       5.97756968       2.83965554       4.64121493      -1.87024540       2.20034702
Si       9.00824401       5.70533634       4.36434603       3.15565687       2.35106822      -2.13860443
Si       5.57337491       7.81057612       2.81989773       3.68196658       0.77569763       0.10182600
Si       1.79499104       6.05948853       5.98128846       0.56187625      -0.93708723      -1.56299727
Si       5.44995250       4.67672067       8.77231075       0.73111421       0.86961009      -3.10774261
Si       6.02204048       3.99220588       3.13411842      -2.61481805       1.92087878       3.67341661
Si       2.06581049       4.23848580       4.45856310      -8.62083452      -2.03591935       1.35055797
Si       3.55883857       6.84188776       3.37314427      -3.81585429       0.09205161      -0.42852991
Si       3.74112644       4.57859922       2.78767744       0.40504436       3.51432091       2.06411485
Si       3.77945371       7.22710738       5.69264103       1.13480217      -0.59343966       4.22397276
Si       8.67159352       4.03135720       6.03878929       5.89693073      -0.34494351       0.03512470
Si       6.40928108       4.21598248       5.45244204      -4.92936688       0.02390384      -4.98727697
Si       8.57232232       7.79806912       5.52796702       0.38144416      -2.60613589       2.66823329
Si       7.22860338       7.63370224       7.50529339       1.46961969       4.25477092      -4.01687236
Si       5.44208962       2.19615144       5.98866720      -0.29136634      -0.19776839       0.89300798
Si       5.61780977       6.02433740       6.79854755      -1.78742989      -5.21676256      -0.96857764
16
Lattice="1.7439050659039483e-16 5.47748410970072 5.47748410970072 5.47748410970072 2.9140779775007323e-16 5.47748410970072 5.47748410970072 5.47748410970072 3.8774317075040437e-16" Properties=species:S:1:pos:R:3:momenta:R:3 pbc="T T T"
Si       6.02483516       7.78080226       2.97686822       0.49784764      -2.51789459      -2.47149299
Si       5.27361874       0.05991847       5.30542033      -0.47346683      -0.09181625       1.71795481
Si       5.83739729       2.32502381       6.04841501      -1.14500249       3.41281734       5.35507862
Si       7.44233141       5.98212294       3.62555173      -4.96768222       4.52038562      -1.64593481
Si       5.15720572       5.26654219       6.86859333       7.21090972       1.98185168      -3.00128323
Si       4.93487408       3.08691762       3.88125449       2.84529882       2.38570663      -2.48591080
Si       1.43430260       3.96050312       4.58631240      -1.31229043      -4.90965266       3.25168583
Si       9.27727969       7.12737422       8.79727893      -1.56709029      -8.21535565       0.60932316
Si       3.33282204       4.72936880       3.36457011      -2.37317136       2.62033530      -0.01431778
Si       3.49398610       6.01321219       5.42598239      -2.24390534      -4.43310287      -5.31679091
Si       8.88959439       4.56919263       6.43502430       3.71748099      -2.46683770      -1.64896045
Si       8.03366314       8.19288857      10.68654948      -5.47615483      -2.02590673       1.21847903
Si       7.87863258       8.30380051       6.54717845      -0.43269219       1.05267652       4.98631872
Si       7.09374836       9.14495204       8.63578484       2.31324328       5.55728548      -0.00471665
Si       4.30423153       6.35124055       8.80562868       2.23216971       1.74326267      -5.89401917
Si       7.18985943       6.11371732       5.97738890       1.17450583       1.38624521       5.34458664
16
Lattice="1.7439050659039483e-16 5.47748410970072 5.47748410970072 5.47748410970072 2.9140779775007323e-16 5.47748410970072 5.47748410970072 5.47748410970072 3.8774317075040437e-16" Properties=species:S:1:pos:R:3:momenta:R:3 pbc="T T T"
Si       6.07102659       6.77412403       3.94089445      -2.26266197       2.45779547       9.16431236
Si       9.43280548       5.33938032       4.54760166       1.78525445       2.03416966       0.98028376
Si       5.33086694       4.06899824       6.66442771      -0.78322338      -4.56204875       3.82814567
Si       1.55719342       0.93216019       1.81111363      -0.21764774       4.23083557      -0.40747719
Si       3.76591040       5.74127469       7.68189578       0.64234652      -0.64349732       2.13196941
Si       3.89217913       4.03973430       1.77366375      -3.37565221      -6.60372061      -3.93585856
Si       7.10893490       8.54085946       5.43947805       0.35133175      -0.32330474       0.25000857
Si       8.24562178       7.48693016       9.34818643       0.98827343      -1.88084037      -4.38628177
Si       4.00126210       5.49482569       3.70207581      -3.62273033       0.95509063       0.81566057
Si       4.77906387       2.20076472       2.99774219       1.30517011       3.00287803      -2.52050602
Si       5.72947035      10.36541848       6.01975443      -2.58672886       3.57575756      -4.11843408
Si       7.53810797       2.89940897       6.05808834       0.06120544       2.21266143       0.56679725
Si       6.89742000       7.30877302       7.45913399       3.59286747      -3.52935663       1.74065457
Si      10.15817175       8.77789513       8.87281783       4.83074237       2.42973167      -3.92941264
Si       3.92211379       3.47376534       4.89367863      -1.80280623      -1.60835675      -2.07547276
Si       7.16823379       5.56326452       5.80228068       1.09425917      -1.74779485       1.89561085
16
Lattice="1.7439050659039483e-16 5.47748410970072 5.47748410970072 5.47748410970072 2.9140779775007323e-16 5.47748410970072 5.47748410970072 5.47748410970072 3.8774317075040437e-16" Properties=species:S:1:pos:R:3:momenta:R:3 pbc="T T T"
Si       1.63212941       0.96815219       2.51327484       2.64390277      -5.09078997       2.90397458
Si       5.39995951       5.86358363       9.08214276       3.54154400      -0.24101980       4.92470925
Si       6.49044994       4.33857353       6.58672792      -1.33668047      -1.51073745       1.31563700
Si       2.61881181       5.50920205       6.03729967       1.85062599       0.61550167      -2.88873647
Si       4.14593329       4.00516588       6.96373910      -0.24605057      -2.08765245      -1.03972322
Si       4.38738274       3.76161702       2.63996556       5.39422683       6.82157032      -1.81135958
Si       1.13321282       4.23802183       4.77383710      -3.84006982       2.45235216       1.70701199
Si       3.76158949       7.13469461       4.82256848      -5.59626161       0.49883205       2.20615141
Si       2.10690765       3.23924887       2.86212673      -3.96001960      -1.13351736      -0.19857021
Si       5.36643079       8.23862157       6.16081753      -1.10472879       0.09584655      -1.25623788
Si       4.77293814       6.11357870       2.84946854      -1.91320303       0.88322766      -0.05824546
Si       7.51457104       3.31951608       4.69470194      -0.01067088       2.08811661      -1.99282504
Si       9.12828055       7.24210258       6.57318497      -0.64450973      -3.31057244       1.00705292
Si       8.66344585      10.42812513       8.90836883       2.72296767       6.33542360      -0.27870101
Si       5.24134128       2.52559881       4.47667157       3.00363464      -4.73891423       0.08635385
Si       6.80254562       6.60429068       7.06793782      -0.50470740      -1.67766692      -4.62649211
16
Lattice="1.7439050659039483e-16 5.47748410970072 5.47748410970072 5.47748410970072 2.9140779775007323e-16 5.47748410970072 5.47748410970072 5.47748410970072 3.8774317075040437e-16" Properties=species:S:1:pos:R:3:momenta:R:3 pbc="T T T"
Si       2.96627242       6.25623979       7.49399122       1.87076697      -3.71195775       3.30535523
Si       6.17495783       7.17429230       9.31450478      -2.75390869      -0.36224291      -1.96589032
Si       6.17533223       4.43572662       6.57596856       2.11737408      -0.77401180       6.06105676
Si       6.27293818       5.54865954       2.72406928       4.13972900       6.09362488      -4.99858860
Si       4.95271697       5.32473759       8.42518784      -2.05953805       2.15445976       4.47272633
Si       5.78178534       8.78365480       7.70515406      -2.80193347       2.38742941       0.26112724
Si       3.45738076       5.76019172       5.25155610       3.64935025      -7.68622544      -0.57848605
Si       8.54145608       7.36976053       9.11918496       4.17707733      -1.39018587       0.87572962
Si       3.45816157       3.02081962       2.51314548      -2.88018841       4.35013673      -1.79207787
Si       6.27272690       8.28747204       5.46271079      -0.15238816      -4.16417670      -0.35542122
Si       9.76414339       6.48009369       7.27012105       0.15637281      -2.39624255       1.35224324
Si       8.54161883       4.63069374       6.38094032       2.59116807       3.21985773      -1.11105950
Si       2.96620628       3.51720360       4.75535804       2.06541523      -0.15801086      -4.64613105
Si       9.76421101       9.21893073      10.00899011       3.05455284      -1.70349882      -2.74991581
Si       4.95287832       2.58627423       5.68665876      -5.34124347       7.04083585       2.01314133
Si       5.78113075       6.04537485       4.96614962      -7.83260633      -2.89979166      -0.14380931
16
Lattice="1.7439050659039483e-16 5.47748410970072 5.47748410970072 5.47748410970072 2.9140779775007323e-16 5.47748410970072 5.47748410970072 5.47748410970072 3.8774317075040437e-16" Properties=species:S:1:pos:R:3:momenta:R:3 pbc="T T T"
Si       3.46563690       1.17031498       3.27602967       0.06279664      -3.18157905      -3.09967774
Si       1.27318767       4.83566483       5.11674455       3.62213814      -2.42418797       1.29902522
Si       6.04945688       3.32108187       7.38276959       1.55639440       1.70854973       3.99185312
Si       6.76707324       9.58584567       7.45971588       2.33414412       6.77124538       4.05783537
Si       3.58517678       4.79098813       7.29951900       1.95432195       1.85185246       2.56509261
Si       4.45802545       4.87860785       2.51406412       0.69712684      -0.41063380      -6.23669499
Si       3.62116939       5.45041701       4.80547124      -2.39218503      -4.97564625      -2.42484909
Si       3.52163111       7.81954953       5.03888244      -3.73032551      -0.26710068       4.22226966
Si       3.05435512       3.01137570       1.80728786       1.12289873       3.63388375       0.15187675
Si       5.66118734       8.46598143       4.19412037      -2.72233097       2.61058424       1.24222152
Si      10.06856829       6.97653508       6.82004369      -3.34827822       3.47220594      -1.50507702
Si       5.90586799       4.73253442       5.38720598      -1.47180597      -2.04502724       3.11293480
Si       7.81552327       7.57813377       6.86113187       1.05071771       0.03933246      -5.39839871
Si       6.89413537       2.98866775       4.11946865      -1.53763553      -4.81332670      -1.59469584
Si       5.40053912       1.23115344       4.62993312       3.33673232      -1.20557977       0.75470347
Si       7.10188012       6.69324167       4.82296123      -0.53470962      -0.76457250      -1.13841912
16
Lattice="1.7439050659039483e-16 5.47748410970072 5.47748410970072 5.47748410970072 2.9140779775007323e-16 5.47748410970072 5.47748410970072 5.47748410970072 3.8774317075040437e-16" Properties=species:S:1:pos:R:3:momenta:R:3 pbc="T T T"
Si       2.76039087       2.33062732       2.60463744       5.36797354      -0.41641428       3.09365268
Si       0.79880650       4.95127906       4.55246301       2.32065841       1.41300103       5.82240673
Si       0.79072189       1.34063299       1.83961899      -4.37159485       1.05400495      -4.30640179
Si       2.25837267       4.29019683       6.27654789       2.60856998       2.11297578      -4.25018237
Si       4.36788188       5.75440356       5.98481800       3.86979524      -0.34447529      -2.41980159
Si       6.04333469       4.42645175       2.50134718      -0.72111536       4.90192875      -1.86616743
Si       4.16125022       5.50947022       3.62874439       4.20684706       1.73565204      -1.22176149
Si       9.59874087       9.27681997       9.95541104      -2.18952867      -1.13050244      -1.25822959
Si       2.19189689       4.57355318       2.77696259       0.49057266      -2.29881500      -5.23147929
Si       4.52630376       8.12085956       6.56886682      -3.44136463      -8.82220050       3.80090700
Si       3.81271573       1.25207115       4.43847505      -1.60160834      -1.59905752       0.39082510
Si       7.17567047       3.88215219       4.53954104       2.01354730       0.42386552       1.25639369
Si       8.18764059       7.44397532       6.36729285       1.39962077      -1.42973489       1.38962740
Si       9.72064895       7.63414188       8.19220107      -3.72809356       2.74976030      -0.32426709
Si       6.03899363       1.78224319       5.01705252      -4.94400734       3.36379881       1.40781758
Si       6.73256034       5.48373086       6.29136938      -1.28027220      -1.71378726       3.71666045
16
Lattice="1.7439050659039483e-16 5.47748410970072 5.47748410970072 5.47748410970072 2.9140779775007323e-16 5.47748410970072 5.47748410970072 5.47748410970072 3.8774317075040437e-16" Properties=species:S:1:pos:R:3:momenta:R:3 pbc="T T T"
Si       6.49382794       6.19383487       2.30502790      -0.36635061       2.44346831      -1.24773453
Si       5.68985758       7.39316740       8.98465844       0.95634529      -2.47203413      -1.38127628
Si       6.02630791       2.98626609       7.31686319       1.02319034      -0.80090127       0.21353819
Si       3.02451649       4.27719784       5.85921071       2.90894013      -0.21547511       2.42790686
Si       3.31584699       5.94995445       7.53880944       5.29783211      -2.06259439       4.14908674
Si       5.78169432      10.06938963       6.18948497      -0.46408253      -0.07382197      -7.46696178
Si       2.33209180       5.71048795       4.09590213       1.27616813      -0.36262032      -3.93376654
Si       4.17175940       7.15158339       4.92865973       2.83994669       6.51590170      -1.96455617
Si       2.48780112       4.31579188       2.10447260      -6.35728622       0.68738689       0.28440831
Si       4.30620188       2.78365533       1.64971346       3.32068841       3.27628729      -0.22759592
Si       9.78775897       5.53699904       4.37375978      -3.38104479       3.90362436       2.26191838
Si       7.96695293       5.99733620       5.90217425      -2.31205675      -6.81367229      -0.58637692
Si       7.80819411       7.99161845       7.29260463       2.34238197      -6.07393856      -0.26863854
Si       9.64920866       8.82148961       8.73500375      -1.50378982      -5.70220240       8.15879246
Si       5.25176659       3.57511174       5.16172267      -2.22680874       3.57812196       0.42442920
Si       6.02711149       5.73117750       4.57476573      -3.35407359       4.17246993      -0.84317345
16
Lattice="1.7439050659039483e-16 5.47748410970072 5.47748410970072 5.47748410970072 2.9140779775007323e-16 5.47748410970072 5.47748410970072 5.47748410970072 3.8774317075040437e-16" Properties=species:S:1:pos:R:3:momenta:R:3 pbc="T T T"
Si       1.53996606       1.45604690       2.88286579      -5.26948282       2.01001967       2.22685007
Si       3.79350080       1.00706136       3.63813461       4.96983374       0.89955979      -1.87833962
Si       0.88228905       3.65118544       3.46533129       7.09747985       4.03301663      -0.69372079
Si       6.40888324       9.55201121       5.77357580       0.49007700      -0.61324723      -3.17457838
Si       4.32842051       4.32409992       7.97182452      -0.37750193      -0.46830483       1.11396607
Si       4.36724458       4.39713821       1.56399066      -7.22644663      -2.00866977      -2.15303527
Si       1.56313601       6.32606639       6.07534705      -5.98014590      -0.80152442      -0.19880017
Si       3.57485485       6.74010351       4.83101235       0.22797325      -0.54585726       2.24991616
Si       2.43347116       5.28073258       2.87513681      -6.39071466       4.53021180      -1.53545980
Si       4.60654134       7.49358237       7.00128715       8.35844566      -4.33026984       4.37148487
Si       8.04828852       5.55491049       5.91110307      -4.53145614      -0.72435547      -4.90430078
Si       6.58811722       4.04506659       4.70247832       3.41677576       5.03135191       3.05685962
Si       7.00972768       7.49150354       6.93233564       0.95084092       0.23476303       0.15071329
Si       8.15360170       8.35938047       8.82412638       4.13433198      -3.45424888       1.16615685
Si       5.17275399       2.32789400       5.57246921      -1.20689067      -2.89339545      -2.97114610
Si       5.21764912       5.52331017       3.51433059       1.33688058      -0.89904968       3.17343398
16
Lattice="1.7439050659039483e-16 5.47748410970072 5.47748410970072 5.47748410970072 2.9140779775007323e-16 5.47748410970072 5.47748410970072 5.47748410970072 3.8774317075040437e-16" Properties=species:S:1:pos:R:3:momenta:R:3 pbc="T T T"
Si       0.39777336       2.78684160       2.82875842       2.27034237       2.85649701       2.17464449
Si       6.53945767       6.84523504       8.52968709      -1.35791303       0.32915117       2.05898226
Si       6.56002371       2.58117401       6.03352909       0.62095452       4.66560336      -1.41684808
Si       6.17536711       4.76651902       1.63331942       1.65219244      -0.98095786      -1.79117642
Si       9.34278132       9.51873922       8.29043468       1.74321739      -3.26935454       0.49887056
Si       3.76234393       2.84717504       3.19475567      -6.28318890      -6.47521154       0.14735988
Si       1.67355546       5.75714393       5.11500582       0.45532947       0.60217394       2.01235868
Si       3.86185210       6.59239369       5.40492560      -1.20650223      -3.53853981      -5.45207096
Si       1.94235075       3.41913940       4.52546303      -1.38684163       1.14580002       2.01237634
Si       4.40715765       6.26309467       7.68682282      -0.91651763       2.59254725      -3.45922289
Si       3.89587832       4.31682189       1.34881564      -0.50864237      -0.74453380      -0.16929747
Si       8.56300913       8.79014431      10.41085539      -0.95632223      -1.35135648       0.83256821
Si       8.67681298       6.38068874       7.63081305       1.24244086      -0.66690410       4.53340791
Si       7.77066883       8.44590821       6.83784963       1.66221654      -2.65225501       1.58168440
Si       5.86186447       3.59377966       4.02238792       5.75021194      -0.76482466      -0.66464020
Si       5.21251725       6.10277882       3.51941009      -2.78097752       8.25216506      -2.89899670
