25
Properties=species:S:1:pos:R:3 pbc="F F F"
H       -2.69881883       0.18729488      -1.71959182
H        3.26021155      -0.92940667      -0.74827220
H        0.36684652      -0.33586657      -1.52486242
H       -1.61116507      -2.67512357      -0.98106470
H        2.23192148       1.32058415       3.99722843
H        1.35491816      -3.14177130      -2.12929867
H        3.22804229      -1.33802900       2.45848778
H       -2.89546564       3.29888418      -2.25127011
H        0.07720814       4.44223007      -2.39928457
H       -0.70299093       2.29009586      -0.38119840
H        0.26565840      -0.95623887       3.44821771
H       -4.03585108      -1.61784091       0.70233195
H        1.43696095      -3.84401179       3.18770557
H       -0.62243759       1.64467991      -3.52640122
H       -2.82442847      -0.48445213       3.56758638
H       -1.76781170       5.10022415       0.07438967
H       -0.71326762       1.98467137       2.84924972
H       -1.10407607      -1.53665382      -3.84467561
H        1.88401844       3.10027195      -4.58017578
H        3.39388834      -3.82032652       0.48875708
H        0.87400333      -2.22929929       0.72780396
H       -1.37250544      -0.27875792       0.95603333
H        2.11043559       2.11557342      -1.65680482
H        1.51061678       0.78995004       1.08755865
H       -1.64591152      -3.08668164       2.19755010
25
Properties=species:S:1:pos:R:3:momenta:R:3 pbc="F F F"
H       -2.74462811       1.09991036      -1.92977298       0.07555122      -0.02408188      -0.03653764
H        3.07293360       0.23474011      -0.47178250       0.20950041      -0.12095493      -0.13178742
H        1.87170417      -0.87515400      -3.17830909       0.20502432       0.05553634       0.34174905
H       -1.58765750      -3.79044782      -0.33182476       0.32983192       0.25683945       0.18592496
H        3.30704565       1.24590793       2.53578623       0.10067877       0.14993270       0.25617869
H        0.95697903      -3.86672633      -2.82426560      -0.13040154      -0.12987894      -0.31276747
H        2.89797828      -1.86730223       1.88360127       0.29065139      -0.09104007      -0.01243096
H       -3.62926567       3.70140569      -0.58356565       0.01757749       0.39860318      -0.06132564
H       -0.68626330       3.52539502      -1.91271725      -0.19874872       0.39611016       0.03414290
H        0.18013121       0.73577790      -1.30075221      -0.11776000      -0.08796378       0.07703610
H        1.20815197      -0.50278079       4.34245259      -0.18689903      -0.18428256       0.07166404
H       -4.13322909       0.92904789       1.04643426       0.04039364      -0.04562844      -0.27208399
H       -0.29420209      -2.52818785       2.36788579      -0.01657468       0.28937729       0.22128912
H       -0.44269213       1.17132994      -4.16776008      -0.27631910       0.00624799       0.00080881
H       -1.78258813       0.18439292       3.17356202      -0.17419468      -0.05709434       0.13819218
H       -1.38150971       2.23786526       0.84647943       0.19035239       0.05196835       0.13355081
H        0.47624499       2.49555222       3.36706995      -0.02598847       0.25614447       0.00725562
H       -1.18936912      -1.58907513      -2.68917338       0.09086159      -0.21363909      -0.24843893
H        2.23311638       2.31473261      -2.75067373      -0.03255036      -0.25687398       0.14971508
H        3.68837596      -2.69150953      -1.33280814       0.02777589      -0.01075106      -0.15974233
H        0.90108631      -2.06520496      -0.43168270       0.03565813      -0.15096120       0.36764598
H       -1.82815445      -0.82720581       0.23635254      -0.13092533       0.12987049       0.18668329
H        1.60659911       2.88599620       0.34434215       0.02318585      -0.26986184      -0.29127986
H        0.72510501       0.18402841       1.50391110      -0.07685562      -0.36717271      -0.35417722
H       -3.42589238      -2.34248802       2.25721075      -0.26982547       0.01955442      -0.29126519
25
Properties=species:S:1:pos:R:3:momenta:R:3 pbc="F F F"
H       -2.46202628      -0.26441275      -2.00201159       0.02045351      -0.01435772      -0.16371650
H        2.61217621       0.24601860      -1.38700172       0.36898604       0.32055410       0.07738699
H        0.12564791      -1.52022164      -0.94629190       0.16497204       0.15697515      -0.04882430
H       -2.43813026      -2.98856588      -0.39630022      -0.19991225       0.05134750       0.13045056
H        2.16197582       1.68709952       3.56135488       0.14244035      -0.14658275       0.02797428
H        2.13782498      -2.51179842      -2.88673316      -0.13947524       0.30401054       0.01068888
H        4.14560320       0.30379504       1.39125734       0.00735005      -0.04828325       0.17959574
H       -2.95961687       2.26533704      -0.10242506      -0.19017005       0.03029790       0.02811746
H       -1.67273278       2.64141031      -3.05838157      -0.08921245       0.06105819       0.06964717
H       -0.19755498       1.38290278      -0.81678677      -0.01077703      -0.16082698       0.20298239
H       -0.44732263      -0.19844752       3.84622670      -0.05238795      -0.12427991       0.14416616
H       -4.63950695      -0.38002077       0.23078730       0.18569103      -0.00280677      -0.29572406
H        2.50270191      -1.59628930       3.46840162       0.06617410      -0.03888770      -0.07550709
H        0.29088084       0.08899113      -3.52897006      -0.00060014      -0.16615860      -0.08031235
H       -3.39473977       1.36672234       2.88639480       0.05541304       0.13465583      -0.04227043
H       -0.47755223       4.31732914      -0.50973913      -0.07104054       0.07375955       0.07847437
H       -0.57194581       2.38655358       2.02933873      -0.28902479      -0.04109058       0.12560423
H       -1.06619705      -2.83817954      -3.31832349       0.16889685       0.07928298      -0.28119442
H        1.53159291       2.94722957      -2.65662155      -0.07222124       0.01749500      -0.06175642
H        2.74768632      -2.42658891       0.30748494      -0.01532413      -0.03522093      -0.01900335
H        0.46190558      -4.45556404      -0.87715717      -0.00081212      -0.01118809       0.09948760
H       -1.77156346      -0.38637897       1.08506647       0.04656127      -0.28146095      -0.07562024
H        2.18334862       2.74311433       0.50593378      -0.07814791       0.01576534      -0.03627217
H        1.19725259      -0.01797326       1.33752411      -0.22497087      -0.26236524      -0.07068590
H        0.00029219      -2.79206237       1.83697271       0.20713844       0.08830740       0.07631142
25
Properties=species:S:1:pos:R:3:momenta:R:3 pbc="F F F"
H       -4.45407429       0.72396422      -0.68586307       0.12085950       0.18490174       0.13909137
H        2.72421116      -1.17488889      -1.93575373      -0.01458909       0.04454799       0.17273128
H       -0.03351285      -1.64155928      -0.72587753      -0.07969659       0.07254969      -0.19124256
H       -1.63323145      -4.05946592      -1.29974567       0.12349174      -0.17690285       0.17750490
H        2.28675946       0.99429809       2.77186533      -0.23899557       0.12492877       0.13562909
H        0.26529158      -2.60534686      -3.51497556      -0.15965043      -0.07098511       0.07518514
H        4.32347506       0.60220811       0.27361346       0.15129798      -0.16533033      -0.17717187
H       -2.51200618       2.10482347      -2.91055068       0.12115348       0.31440596      -0.00009782
H        0.10524607       3.26634526      -1.36674410       0.03374088      -0.01502113       0.06127684
H       -1.51597219       0.87247634      -0.40323681      -0.20229813       0.23376302      -0.14868752
H       -0.35070517       1.21490430       4.48518867      -0.36508264      -0.09267772      -0.12926351
H       -2.80115609      -1.72704271       0.58219972       0.17194093      -0.18728564      -0.07414846
H        1.37617900      -1.71027716       4.11090931       0.21232803      -0.10483267       0.09304839
H        0.23379035       0.51147695      -2.91394918      -0.07874416       0.31979853      -0.22189395
H       -2.96758626       1.15096144       2.21357691       0.27489501      -0.10408212       0.03980957
H       -2.81268913       3.50583501       0.00584812       0.26878738       0.20377159       0.19672378
H       -0.23537148       2.66624626       1.72515041      -0.03262092      -0.19275954      -0.15500484
H       -2.44829965      -1.12232477      -2.50555789      -0.00662499      -0.13818092      -0.09368816
H        2.94995121       2.03201790      -2.29346494      -0.23438267      -0.09724790       0.04040032
H        1.65282488      -4.06723122      -0.96559487      -0.17414062      -0.12900071      -0.05897791
H        2.38095019      -1.77044852       1.15665313       0.04838030      -0.19013122      -0.15409076
H       -0.37858019      -0.48277877       2.02171169       0.01172062      -0.04611132      -0.01095537
H        2.66989355       3.40626661       0.63170765      -0.04994944      -0.11042139       0.21739278
H        1.38870872       0.82795981      -0.07173320       0.12078304       0.21093364      -0.07430064
H       -0.21409631      -3.51841968       1.61462282      -0.02260364       0.11136964       0.14072991
25
Properties=species:S:1:pos:R:3:momenta:R:3 pbc="F F F"
H       -4.11113521       0.30410405      -1.04699444       0.06113444      -0.21656735      -0.08708340
H        2.78280311      -2.10874468      -3.08606133       0.17827995       0.07421262      -0.02559335
H       -1.27219286      -0.54417128      -0.83915215       0.12402093      -0.15655238      -0.16041920
H       -3.17580934      -2.80143943      -1.09282880      -0.10652144       0.32511877      -0.15702247
H        1.36592156       0.27325875       4.34712846      -0.04691978      -0.05368180      -0.09277699
H       -0.19330521      -2.86785229      -2.37472364       0.16991823       0.13441052      -0.37299007
H        2.85430465       0.79915699       1.54340610      -0.04352429       0.18564785      -0.12979626
H       -1.71788951       2.10418598      -2.27372524      -0.05604327      -0.04990230      -0.07306109
H        2.69729736       3.68030776       0.12189728      -0.01331426       0.03980960       0.31354922
H       -2.12395497       1.88870227       0.85483452      -0.17247013       0.22717119       0.03441339
H       -0.85638455      -2.12194178       3.86837740       0.26891433      -0.18193558       0.19116610
H       -2.95168083      -1.05954227       1.64749141      -0.13919135       0.15493517      -0.02870199
H        2.01414991      -2.28868693       2.39494235       0.07512760      -0.02019574       0.04378545
H        0.61782575       0.13863096      -3.12090421       0.12960137      -0.00440892      -0.00742517
H       -1.77890840       0.99417978       3.88089139      -0.03729237       0.42807892       0.02913287
H       -0.46814870       4.34990690      -0.27863045      -0.27159920      -0.20040190      -0.17673042
H        0.51085346       2.75553556       2.38304473      -0.15241767      -0.00084338       0.13799810
H       -2.39730518      -0.80334951      -3.56875605       0.04807241       0.13360102       0.11011511
H        1.24857961       3.27111792      -2.81857067      -0.08459494      -0.34686866       0.22217249
H        1.96939069      -4.19344652      -0.50305324       0.12019294      -0.13568222       0.05864639
H        1.66436704      -1.21761163      -0.45801600      -0.01161042      -0.29849875       0.11317992
H       -0.03766355      -0.17876544       1.78587829       0.03974807      -0.28119723       0.15791724
H        3.31178139       1.03622909      -1.72903319       0.07259551      -0.20949734       0.02569033
H        0.66122890       1.61146899      -0.43427522      -0.15196367       0.09078745      -0.01320209
H       -0.61412510      -3.02123323       0.79683269      -0.00014300       0.36246043      -0.11296411
25
Properties=species:S:1:pos:R:3:momenta:R:3 pbc="F F F"
H       -2.71426220       0.64818157      -0.67317839       0.00637751       0.27210601       0.02244956
H        4.75848468       0.52118161      -1.18740439      -0.01350590       0.08097426      -0.13029977
H       -0.13978507      -0.63111388      -1.97392163      -0.23191849       0.04532962      -0.15050740
H       -2.31705967      -2.49225838      -0.73506125      -0.12118118      -0.08861101       0.20105741
H        1.21473054       1.16368842       2.55823363      -0.05675139       0.03604080      -0.09826389
H       -0.51607383      -3.35344788      -3.16140181      -0.02082288      -0.00329040      -0.00480047
H        4.18105411       0.32228389       2.10924680       0.07777027       0.06393051      -0.13566155
H       -2.09055032       3.75675381      -0.39830488       0.33976453      -0.29745518       0.11823372
H        0.89708601       4.27560668      -1.58292561      -0.09362739       0.14590234      -0.06445751
H        0.11353392       1.76191495      -0.22359838      -0.09195792       0.07540765      -0.04386036
H       -0.95426146      -0.69532252       3.96342092      -0.06743617       0.04540130      -0.12997495
H       -4.10694975      -3.95879011       1.31025789       0.13660892      -0.07898497      -0.13256846
H        1.67252138      -1.94946000       2.61153760      -0.07407683       0.20877988       0.05490693
H       -1.10808331       2.10138313      -2.96238059       0.00246974      -0.34455481      -0.02621151
H       -3.41369353      -0.99920200       1.93502697       0.23670769      -0.09945469       0.19604919
H        0.38884770       4.07952467       1.62216842       0.01445297      -0.02618808      -0.31482287
H       -1.83529810       1.79221500       2.12717998       0.12740724       0.10895239      -0.21902069
H       -2.76487562      -0.86711985      -3.39564946      -0.17693858       0.17298762       0.35868911
H        2.06905895       1.43545023      -2.51229395       0.28419951      -0.13047761       0.17709289
H        2.57075950      -1.78659197      -2.66554352      -0.10844986      -0.12833815      -0.00270016
H        0.76233569      -3.13096612      -0.30873703      -0.19049167      -0.09210731       0.25241804
H       -0.59983123      -0.77056300       1.00763385       0.10972238      -0.02337352      -0.02183849
H        2.93891009       2.60781794       0.31619932      -0.27863549      -0.09760202      -0.03177624
H        2.18204360      -0.42129351       0.00820767      -0.04275100       0.20554730      -0.13078229
H       -1.18864207      -3.40987267       2.21128784       0.23306400      -0.05092193       0.25664977
25
Properties=species:S:1:pos:R:3:momenta:R:3 pbc="F F F"
H       -3.16299405       0.38273675      -1.00886339      -0.18343652       0.00134262      -0.14446583
H        4.32584579       0.29929643      -0.57148349       0.08373284       0.08570286       0.05631586
H       -0.49673705      -0.91954864      -1.83631655       0.03291881       0.12571331      -0.15969831
H       -2.55145462      -2.85081316      -0.62915645      -0.02721917      -0.15021742      -0.08542260
H        0.36555632       1.40024822       2.59077878       0.23756267      -0.06516649      -0.08262022
H       -0.01459763      -3.69874487      -2.83519345       0.22088780       0.05243391      -0.01858269
H        3.39006385       0.43603862       2.53151869       0.12863243      -0.03708682       0.03282741
H       -2.66219769       3.56038261      -1.03581447       0.09354685      -0.08144070      -0.11334780
H        0.50073405       4.07138606      -1.83784995      -0.07268521       0.28605455      -0.03091636
H       -0.47260037       1.69396806      -0.35962174      -0.00431898      -0.11933020      -0.32492975
H        0.98013595      -1.67966061       2.96080424      -0.18915790      -0.12050346       0.06790810
H       -4.09516859      -1.10433088       1.68755407      -0.27500223       0.05634343       0.12480958
H        3.48590651      -2.43485806       1.02477034      -0.16578809      -0.03005728       0.18325274
H       -1.15227062       1.70262212      -3.28718910       0.05948706      -0.08585767       0.13900468
H       -1.85169989      -0.41926114       3.95060298       0.13057678       0.11216537       0.30221496
H       -0.44096339       4.17176367       1.27013875      -0.11980119       0.07364378       0.00577744
H       -2.65734418       1.84109727       1.75519557       0.16391380      -0.17474573      -0.10942569
H        0.86193323      -0.84376354      -4.50117890      -0.01926369       0.00178642      -0.02865531
H        1.81680350       1.18499505      -2.33165399       0.33587825       0.00622120       0.04358479
H        2.46684704      -1.93531275      -2.01734066       0.21466422      -0.10954111       0.19220450
H        0.48750043      -3.14121080       0.19360613      -0.02840459      -0.00495696       0.12487784
H       -1.22557903      -0.75690396       1.07119784      -0.29775778      -0.05287602      -0.01149363
H        2.31042223       2.64983834       0.43315627       0.17143015       0.05163980      -0.21586547
H        1.56013523      -0.29833145       0.31023016      -0.27097246       0.20601197       0.00978236
H       -1.76827699      -3.31163336       2.47210834      -0.21942387      -0.02727937       0.04286340
25
Properties=species:S:1:pos:R:3:momenta:R:3 pbc="F F F"
H       -3.17935272       0.40998138      -1.50742637       0.20690006       0.23934352      -0.08876948
H        4.31796216       0.18404656      -1.23564483      -0.21650775      -0.15567029       0.03626224
H       -0.51668606      -1.02076110      -1.14500369      -0.18550807       0.07253057       0.11538144
H       -2.76155048      -2.79009986      -1.92838275       0.01914286      -0.05410353      -0.13460729
H        3.61406388       2.65937450       0.83451371      -0.14360594      -0.31264779      -0.18376593
H        0.32628324      -3.23384439      -2.92686794       0.01448725       0.09966612       0.00678409
H        3.40422452      -0.47577397       1.79276718      -0.10784725      -0.05939816      -0.10169369
H       -2.60570103       3.47644954      -0.58085113      -0.14335954       0.12693053       0.13760837
H        0.56412619       3.63267048       0.13226120      -0.14318834       0.08660611       0.15828432
H       -1.17548130       1.18926001       0.65250791      -0.03242728       0.17573032      -0.16337065
H        0.40488745      -1.11654486       1.74734700      -0.11449378       0.20289042       0.04577130
H       -2.64509234      -1.47950339       0.97790651       0.16749085       0.19663882       0.07585666
H        1.99156894      -3.62067475       2.15450349       0.36484889      -0.21638470      -0.12030735
H       -0.46940507       1.84933883      -2.27343682       0.00352118      -0.01417029      -0.00007582
H       -1.73688257       0.26266430       3.45572747       0.23621733      -0.37646908       0.08929945
H       -1.65151487       3.41571319       2.53673791      -0.11532787      -0.17188298       0.27084986
H        1.09985023       1.75320853       2.62339269      -0.08427366       0.02434994       0.02316155
H       -1.38031838      -0.67806050      -3.96633756      -0.10211667       0.10206169      -0.06368145
H        1.71024041      -0.29127294      -3.08908637       0.02515111       0.02920347      -0.18474284
H        2.24096730      -2.18106286      -0.60256731      -0.18678203      -0.03836619       0.00428657
H       -0.47018156      -3.69386150       0.18735861       0.17407262      -0.05425476       0.05662136
H       -4.02043092       1.38045754       1.46083818      -0.01888633       0.00558673       0.05416277
H        2.57905598       2.73296448      -2.25653039       0.19020820       0.12270509      -0.04095328
H        1.59244481       0.79183247      -0.24275140       0.13209517      -0.16969175       0.23480792
H       -1.23307783      -3.15650169       3.19902468       0.06018900       0.13879620      -0.22717010
25
Properties=species:S:1:pos:R:3:momenta:R:3 pbc="F F F"
H       -3.53477610      -1.38365907      -2.17282534       0.08105989      -0.19823707      -0.02258287
H        4.04802444      -1.41934348      -0.90050187      -0.24878581       0.08482433      -0.15372506
H        1.53422710      -0.34798443      -2.51625343      -0.05623870       0.02031462      -0.23116166
H       -1.87813115      -3.86428319      -0.81932531      -0.16762356      -0.42278231       0.04482075
H        1.61775674       2.15766379       1.97376473      -0.13246285       0.14182080      -0.02218857
H        1.28557452      -3.13293530      -1.03921915       0.23749832       0.01696719      -0.06984620
H        4.11795577       0.13442110       1.96422364      -0.10885934       0.05963514       0.28206632
H       -1.55154114       3.76141124      -1.91040936       0.20005594       0.05380422      -0.15160728
H        1.29185439       4.36433478      -0.34358373       0.06523456      -0.26428532       0.03987747
H        0.12745258       1.66600978      -0.65610142       0.20036175       0.20399564      -0.01338192
H        1.37635003      -0.74611909       3.54689678       0.05365830       0.26458626      -0.00234972
H       -3.21308924      -1.57222538       1.05276894       0.26041452      -0.12673924      -0.03453172
H       -0.27777879      -2.69083131       1.68027149      -0.05748844       0.03837754      -0.12380616
H       -1.33855881       0.79549321      -3.18176422      -0.19744009       0.13493625       0.29691562
H       -3.72813908       1.15419921       2.54775034       0.07257754      -0.25943092       0.32053402
H       -1.38228615       3.38303746       1.29462127       0.19883435      -0.09488203       0.05960042
H       -0.91362942       0.40521993       1.86163219      -0.08322439      -0.05077964       0.24987381
H       -0.72458837      -2.36953775      -3.45703153       0.20217754      -0.01901215       0.00971016
H        1.26555208       2.74614347      -3.17331904      -0.18778951      -0.11424868      -0.07092162
H        2.92252736      -2.93692377       1.74290930      -0.18255372       0.24886764      -0.12835813
H       -0.92844719      -1.05674149      -0.80032851       0.01114919       0.12447392       0.09471420
H       -2.89959023       1.23364210      -0.46011146      -0.06330771      -0.01657998       0.07478017
H        3.16997423       1.70896972      -0.74924845      -0.10528556       0.01714584      -0.20261314
H        1.61289957      -0.55746561       0.55682734       0.01034356       0.23589926      -0.01596360
H       -1.99959314      -1.43249593       3.95835681      -0.00230579      -0.07867133      -0.22985529
25
Properties=species:S:1:pos:R:3:momenta:R:3 pbc="F F F"
H       -2.94533482      -0.16781249      -2.34692758      -0.18738546       0.06510223       0.23432113
H        2.93953696      -0.81418224      -0.72819157      -0.48786467      -0.08775233      -0.05908578
H        0.07355185      -0.47888616      -1.89610233       0.09423355      -0.04534875       0.00174841
H       -1.93462290      -2.37023070      -0.33857407      -0.05491313       0.26224418      -0.06113486
H        1.73275377       3.58051418       2.22288263      -0.12933175      -0.06634452       0.01377524
H        1.01834233      -3.33541134      -0.96431624       0.04032362      -0.02776826      -0.02146143
H        2.79882771       0.30773402       2.33292037       0.05679835      -0.08269103       0.04473701
H       -3.81926744       2.46230072      -0.60863351      -0.20149824       0.10368933      -0.05488739
H        1.21643029       4.38070218      -1.00180070       0.09375363      -0.07830649       0.03679755
H       -0.97475787       2.41508657      -2.07104507      -0.11626575      -0.10614180      -0.34253290
H        0.80960469      -1.62537496       3.94391973       0.02032930       0.03465081       0.03181759
H       -4.39313412      -0.53664672       0.49570954      -0.09487232      -0.27399529       0.01082825
H       -0.29124156      -3.87067694       1.92482243       0.03599652       0.16039739       0.13024903
H        2.09435075      -1.94391092      -3.55223439      -0.28293985      -0.15260190      -0.06228387
H       -3.28617666       1.71779004       2.50671176      -0.00273721       0.22552260       0.39455439
H       -1.13750532       3.50793082       0.90763245      -0.16174198      -0.34226997      -0.28193885
H       -0.17735848       1.20293611       2.87063729       0.09095767       0.19569498      -0.01618104
H       -1.07467129      -2.87151622      -3.28639306       0.15211276      -0.02579434      -0.16533331
H        4.57561420      -0.08509373      -3.23887286       0.09924695       0.12448690       0.40016635
H        2.80412767      -2.89202876       1.70522094       0.14314856       0.12626415       0.00998923
H        0.50504186      -1.15039724       1.02058210       0.22292482       0.16430820      -0.32936306
H       -1.66137402       0.62648589       0.26472903       0.25114989       0.14853400       0.08138851
H        2.03196022       1.63794721      -2.83677582       0.09123640       0.06815921       0.02897223
H        1.19140080       1.58384312       0.06104347       0.43132834      -0.11373962      -0.04973587
H       -2.09609863      -1.28110246       2.61305544      -0.10398997      -0.27629967       0.02459347
25
Properties=species:S:1:pos:R:3:momenta:R:3 pbc="F F F"
H       -2.97381930       1.70341942      -2.90867257      -0.05435362      -0.05495009      -0.04950239
H        3.38577898       0.52462487       0.89986990      -0.06568844       0.03529855       0.12685709
H        1.19576612      -0.29496719      -1.04999116       0.23725415       0.22279521       0.20790957
H       -2.23948710      -3.71778461      -1.69761474       0.16931901       0.07054941       0.16445016
H        1.94139159       2.60374963       2.94360632       0.03520750       0.37146324      -0.03398613
H        0.86632601      -3.18240947      -1.73846499       0.25306590       0.02108254      -0.21228374
H        2.36323874      -0.50505614       3.78999293      -0.02895266      -0.16331162       0.13992794
H       -3.86784552       2.41672545       0.18906757      -0.09503642      -0.21342921       0.08846811
H        1.30931051       2.65788944      -0.16726439       0.00000535       0.06213837      -0.19824440
H       -1.32231722       1.09516949      -0.52402243       0.06922861       0.05977172      -0.01422061
H       -0.49653799       1.02195232       4.42078573      -0.07099341       0.10185713      -0.14836893
H       -3.71521376      -0.69045808      -0.86833015       0.18534640      -0.25855461       0.03996875
H       -0.17674196      -4.57037433       0.89276800      -0.20281578       0.12246449      -0.23578259
H        0.25566097       1.81956138      -3.02865266      -0.28298928       0.12770337      -0.11230600
H       -2.57932997       0.18704258       2.11679844      -0.03365617      -0.16619622      -0.14434992
H       -1.37806234       3.97723623      -1.22340758      -0.03215034      -0.15236511      -0.08782463
H       -1.10307743       2.97602945       1.85984687      -0.17649598      -0.41071669       0.19545790
H       -1.21143381      -0.97689295      -2.77846424      -0.09404459      -0.00843921       0.24713990
H        1.78042306      -0.92504078      -3.88634463       0.26799861       0.13253623       0.32083015
H        3.75722624      -1.74229132      -1.40590065       0.07622925      -0.15897334      -0.18394907
H        1.91636000      -2.27052996       1.14640693       0.07833356      -0.03460009      -0.03689603
H       -1.09064342      -1.78799070       0.27948847       0.15915836       0.18254764      -0.19259347
H        3.35721703       1.37063846      -2.22309530      -0.32187692      -0.05729323       0.20706313
H        0.44961875       0.36210857       1.69961561      -0.05214179       0.01662904      -0.12274786
H       -0.42380818      -2.05235173       3.26197871      -0.01995130       0.15199248       0.03498310
25
Properties=species:S:1:pos:R:3:momenta:R:3 pbc="F F F"
H       -2.65306815      -0.91193529      -3.05625170      -0.17950708      -0.39393751       0.31575508
H        3.77027689      -0.42433960       0.93776847       0.27369389      -0.15198642       0.13213840
H        0.54352291      -0.50912857      -3.18430264      -0.23459224      -0.19017264       0.13138209
H       -0.90011394      -1.42948528      -0.66016959       0.12906492       0.03258209       0.01718220
H        1.69215944       1.65179024       2.38178538      -0.16306532      -0.12892131      -0.38805352
H        2.07970958      -2.23279804      -1.02069598       0.07896977       0.17162049       0.10147720
H        2.87111756      -0.78838810       3.95079984      -0.33668678       0.23449684      -0.12874619
H       -4.28753774       1.79629401      -2.28281799      -0.03936531       0.06014754      -0.43107025
H        1.37169530       2.55954466      -2.81798351       0.02252547      -0.01567094      -0.02411812
H        0.16444365       3.43949385       0.17928244       0.06782517      -0.35755875       0.12749297
H       -0.43131281       0.12824733       4.10213337       0.25876644       0.06613231       0.05870516
H       -3.58696467      -0.14438959      -0.02171173      -0.14944883       0.17159237       0.04793258
H        0.10272414      -4.03034146       0.55830905       0.28871078       0.07398860       0.10382164
H       -1.31846741       1.48902993      -1.71348984       0.03292785       0.49690988      -0.08775463
H       -3.40663166       0.92546908       3.00443548      -0.25528415       0.15042607       0.35965197
H       -3.02888235       2.93536760       0.47355685       0.09311340      -0.17314504       0.11346422
H       -1.07190078       3.14508756       3.11593155      -0.04623494       0.10886251       0.14574008
H       -0.22796045      -3.51050296      -2.70899671      -0.01766766      -0.11697098      -0.17617579
H        2.42810362       0.86384803      -5.20375782       0.06975605      -0.14489106      -0.14131921
H        3.11258505      -3.39256159       1.70700485      -0.17294246       0.08768684       0.05014634
H        0.92236221      -1.34344134       1.75277399       0.21801899       0.07181101      -0.12872803
H       -1.02540087       0.85115948       1.23266136       0.21290146       0.04529728      -0.16552117
H        3.58042549       0.11306263      -2.40924908       0.01856132      -0.07350371       0.04006868
H        1.36612726       0.68549410      -0.48472447      -0.09529989      -0.05389288       0.09220039
H       -2.06701229      -1.86657670       2.16770842      -0.07474082       0.02909742      -0.16567210
25
Properties=species:S:1:pos:R:3:momenta:R:3 pbc="F F F"
H       -3.34750331      -1.07088913      -2.80197617       0.05210344       0.10285204       0.02765593
H        3.52280009      -0.34710081       0.13162403       0.15620286       0.04704581      -0.16398488
H       -1.16255998       0.29310931      -1.33570490      -0.25265374      -0.23631262       0.05589697
H       -2.24056414      -2.26281025      -0.03473645       0.21491760       0.13167570      -0.02702628
H        3.32974466       2.37565620       1.86429892      -0.18303026       0.21159210       0.00074144
H        2.63487927      -2.92578930      -1.60792891      -0.28068300       0.12356004       0.07819310
H        1.67121332      -0.24313808       2.69997180       0.02733593       0.06742311      -0.32712058
H       -2.99218682       2.20921946      -2.64587653      -0.13997751       0.09148680       0.01685977
H        0.22197906       2.79425906      -2.38199648       0.01512521      -0.03841697      -0.02358778
H       -1.63052081       2.91154183       0.18283213       0.03404528       0.13914806       0.24073091
H       -0.81779947      -0.23316325       4.58225185      -0.00320667      -0.31544558       0.08741681
H       -3.84968565       0.45909925      -0.00013577      -0.08606542      -0.01097412      -0.17409800
H        0.15483411      -4.36991224      -0.09672832       0.17134425      -0.06711716      -0.24561820
H       -0.84640494       0.38070643      -4.28378119       0.01857395      -0.13368617      -0.13176563
H       -3.40026234      -1.56373200       2.77634956      -0.20918356       0.01738281      -0.17330691
H        1.22542705       4.38662121       0.30202080      -0.18041428       0.02409630       0.09053825
H        0.26832374       2.58486174       2.87782292       0.07574949      -0.06087953      -0.06098839
H       -0.39226784      -2.36843296      -2.60469632       0.27110306       0.06587592       0.54764336
H        1.70205303      -0.00550564      -2.43120998      -0.11092732      -0.16640226       0.03826336
H        2.62614836      -3.09334245       1.63169616       0.00869739       0.00075647       0.13932251
H        0.68967146      -1.46106412       0.09278613       0.18789633       0.32277034       0.16472119
H       -1.28220342       0.23284103       1.66344850       0.01219689      -0.11961697      -0.04703348
H        3.30555385       2.52529780      -1.38234778       0.23930871       0.14845191      -0.11387228
H        1.05396016       1.43756523       0.21327164       0.13160044      -0.03394385      -0.00004767
H       -0.44462944      -2.64589833       2.58874436      -0.17005907      -0.31132218       0.00046647
25
Properties=species:S:1:pos:R:3:momenta:R:3 pbc="F F F"
H       -2.82229962      -0.56360910      -3.26847853      -0.05229248       0.09973115       0.02394456
H        2.01580201      -0.81199524      -1.68839434       0.02785358      -0.20040954       0.00756329
H       -0.94595321      -0.97602096      -1.00591802       0.02574040       0.04332261       0.17511897
H       -2.50699214      -3.39021792      -1.71631557       0.08143498      -0.09440466       0.03813059
H        1.08770035       1.55581343       2.76205066       0.37158518       0.16608981       0.05652804
H        2.83164459      -3.55141318      -2.72024663      -0.07160583       0.20814067      -0.20355101
H        2.99252856      -0.82328615       3.45367479      -0.12565232      -0.07627270      -0.25610081
H       -2.29554144       1.77645916      -1.12956329      -0.17441936      -0.03217396       0.22974091
H        0.01597010       3.85875934      -1.71134856      -0.18623939      -0.01981954       0.01861092
H        0.57228349       1.36097774      -0.18155074       0.13547639       0.19369007      -0.07985780
H       -0.26752324      -0.90625204       4.04924380      -0.14919341      -0.17053999      -0.38545913
H       -3.84311157      -0.78420184      -0.20590648      -0.05880818      -0.13953322      -0.04776846
H        0.55421283      -3.56160071      -0.67666519       0.10397687       0.21161317      -0.20654367
H       -0.03389277       0.98764147      -3.16676301      -0.00262094       0.12146600       0.34230824
H       -3.93585341       2.21547750       1.48505500       0.02973094      -0.04073074       0.26198026
H       -1.03022978       3.41635910       1.28783130       0.16867695      -0.40680126      -0.12213299
H       -1.71730908       2.08297797       4.04241925      -0.07318519       0.19997186       0.01865637
H       -0.03289595      -2.27412405      -3.53285042      -0.17132390      -0.03541626       0.01084289
H        2.73704072       2.21360524      -2.05562310       0.33775740      -0.20151857      -0.18136156
H        3.50798602      -2.56027656       0.31519555      -0.04650971       0.10711241       0.17350124
H        0.97002922      -1.25258933       1.28176731      -0.19193003      -0.00331402       0.05133901
H       -1.61119855       0.33251757       1.60897528       0.01397838       0.26642834      -0.12369619
H        2.15500415       3.71242922       0.71568100      -0.00045831      -0.17548990       0.00892006
H        3.36155381       0.66462438       0.71249381       0.09425968      -0.05348146      -0.06374995
H       -1.75895509      -2.72205506       1.34523613      -0.08623168       0.03233973       0.25303620
25
Properties=species:S:1:pos:R:3:momenta:R:3 pbc="F F F"
H       -3.60827522       0.70230246      -0.91328285       0.16316467      -0.16419039      -0.05103280
H        2.12619538      -1.19920550      -1.32272900       0.02617085      -0.20198045      -0.10880820
H       -0.80551098      -0.38113410      -1.20615441       0.03257309       0.11641934       0.10194334
H       -0.40250168      -3.33947531      -1.11724945      -0.14898547      -0.01283118       0.00571171
H        3.09050606       2.75870813       1.86302783       0.28330458       0.11780476      -0.11322976
H        2.12034504      -3.89526926      -2.76688346       0.00680388      -0.14038648      -0.00212198
H        3.33119057      -0.46655587       1.48063556       0.12669283      -0.16127244      -0.21826966
H       -1.16946684       2.66747390      -1.09496908      -0.14826434       0.10993666      -0.01596150
H        1.73842548       3.89854580      -0.87007820       0.11129455       0.17941079      -0.11393832
H       -0.06370172       3.49535474       1.77179757       0.19157765      -0.00122619      -0.20290906
H        0.92014680       0.83499570       3.24812069      -0.25054220       0.05536439       0.03606702
H       -2.88772663      -1.98515450      -2.58478173       0.03576317      -0.00794047       0.06999695
H       -0.75202008      -4.18518256       1.87845610      -0.04250884       0.06944827      -0.11732924
H       -1.91368071       0.90375365      -3.64892277      -0.07949392      -0.28441813       0.05561744
H       -1.50290478      -1.30361396       3.59835205       0.25189946       0.01836338       0.09205670
H       -3.16615110       3.33409925       1.20285568      -0.02283135       0.03733545      -0.13849481
H       -1.79603136       2.18544159       4.04979568      -0.25651170      -0.07109752       0.02066859
H        0.15220080      -1.60271778      -3.74518593      -0.17554715      -0.22336536       0.17142428
H        1.13314235       1.36464628      -2.80002373       0.06148737       0.33076284      -0.05771871
H        2.26533333      -3.75349226       0.41994625      -0.02347353       0.11119597       0.16575649
H        0.45032069      -1.50695189       1.29152916      -0.09870543       0.12590525       0.06862616
H       -1.60429434       0.78815454       1.41063358       0.24934373       0.19497781       0.14527383
H        3.81639104       1.46415120      -1.03255467      -0.00819175       0.08760390       0.15554816
H        1.14067142       1.20967647       0.25624775      -0.12557769      -0.03564833      -0.03141854
H       -2.61260351      -1.98855071       0.63141738      -0.15944245      -0.25017185       0.08254192
25
Properties=species:S:1:pos:R:3:momenta:R:3 pbc="F F F"
H       -1.32830382      -0.27055428      -1.17689551       0.07800067       0.13187084       0.09060148
H        3.60534577      -1.07799227      -0.93476518      -0.25184278      -0.00889428      -0.04269417
H        1.34024353       0.89253607      -0.79273563      -0.27831024       0.19516815       0.10240298
H       -1.35271214      -3.23864788      -1.64825340       0.08126860       0.09016882      -0.23325264
H        0.70177386       1.15127066       4.16043163      -0.40023161      -0.09366694      -0.09495185
H        0.97308970      -1.26276613      -2.93733699       0.08317479      -0.15147701       0.09442431
H        2.58546875      -0.00442500       1.85916388      -0.04453067      -0.01371561      -0.03457864
H       -3.35915402       1.54058883      -2.35757133       0.02253210       0.05495923      -0.03032744
H        1.64058242       3.71992328      -1.63740885       0.12313225      -0.30235984       0.26955369
H       -1.12029020       2.71316967      -0.43639614       0.05570737      -0.00380837       0.03658468
H        0.38323418      -1.92409332       3.17041667       0.11765341      -0.22111313       0.18777889
H       -4.03575881      -1.46654264      -1.32929616      -0.13444301      -0.05318126       0.10590867
H       -0.13469826      -4.45461753       1.36329318      -0.04702349       0.17609460       0.23852075
H       -0.24235170       1.64003991      -3.28381785       0.37890983       0.17110310      -0.15636768
H       -2.27545177      -0.14556260       3.73255760      -0.05655708      -0.03617748      -0.29028067
H       -3.34040826       0.84554508       0.82123937      -0.26418701       0.11177390      -0.16614885
H       -1.63266436       2.85901105       2.69263664       0.25119213      -0.26781358       0.03007426
H       -2.07118642      -0.99965634      -3.94288070       0.11203369      -0.27223528      -0.13221761
H        3.00723639       1.21474235      -3.21188233       0.06263053       0.23648527       0.24692935
H        2.97176527      -3.10046538       1.80894144      -0.14740382       0.11513027      -0.20253282
H        0.83579348      -1.93970784       0.06473250       0.28533592       0.07598959       0.02861791
H       -0.40386192       0.42827645       1.50750488      -0.07150548       0.04283926       0.07095524
H        4.00304412       2.03704625      -0.17301729      -0.18728199       0.16324805      -0.09186674
H        1.37363110       2.90023874       1.49954051      -0.05357753      -0.31055793      -0.14373470
H       -2.12436688      -2.05735712       1.18179906       0.28532345       0.17016963       0.11660162
